14
Energy:   -17.5273104068
C   -0.02203558   1.52246116   4.01409805
C   -0.01015258   2.66636815   3.08952067
C   -0.05671581  -1.02768073   0.52011708
C   -0.09819192  -0.72175460  -0.77119106
C   -1.30830369  -0.46551321  -1.45000953
N   -2.28634120  -0.25651045  -2.01027132
H    0.79455855  -0.65218138  -1.37946737
H    0.87532752  -1.21913890   1.02400653
H   -0.95352596  -1.09196919   1.11386463
H    0.87793192   3.25629202   2.97323346
H   -0.90785735   2.99172579   2.60354205
H   -0.10467231   1.85449307   5.05845184
H   -0.86514738   0.86283851   3.81777278
H    0.90712379   0.95268375   3.94881418
14
Energy:   -17.5273658582
C   -0.02369566   1.51619953   4.02241292
C   -0.00811310   2.62672522   3.05832913
C   -0.05847894  -1.00393724   0.53083830
C   -0.09719236  -0.69741333  -0.76049762
C   -1.30686388  -0.45703898  -1.44577907
N   -2.28453288  -0.26072880  -2.01126911
H    0.79797697  -0.61266930  -1.36328093
H    0.87363130  -1.18240794   1.03893640
H   -0.95797589  -1.08254145   1.11882537
H    0.88551759   3.20078841   2.91032700
H   -0.90773967   2.94605811   2.57166976
H   -0.09854102   1.88568404   5.05481702
H   -0.87267211   0.85603602   3.85450134
H    0.90067766   0.93735970   3.97265149
14
Energy:   -17.5274241352
C   -0.02580022   1.50974004   4.02745242
C   -0.01057535   2.58662514   3.02600002
C   -0.05670163  -0.98215899   0.54243524
C   -0.09473893  -0.67586507  -0.74897366
C   -1.30442968  -0.44175850  -1.43636240
N   -2.28209506  -0.25045644  -2.00358307
H    0.80102668  -0.58646552  -1.35019727
H    0.87541757  -1.15560654   1.05222268
H   -0.95676575  -1.06530454   1.12888491
H    0.88690573   3.14585997   2.84766695
H   -0.91312749   2.89947282   2.54048581
H   -0.09352960   1.91449292   5.04708234
H   -0.87901340   0.84851364   3.88695869
H    0.89542512   0.92502506   3.99240934
14
Energy:   -17.5274856035
C   -0.02805128   1.50369740   4.03166631
C   -0.01332658   2.54618968   2.99456865
C   -0.05477427  -0.96030624   0.55433836
C   -0.09222212  -0.65403315  -0.73710642
C   -1.30196585  -0.42648615  -1.42656781
N   -2.27966583  -0.24043094  -1.99548433
H    0.80406483  -0.55967589  -1.33679360
H    0.87743116  -1.12864944   1.06567597
H   -0.95540345  -1.04853467   1.13910720
H    0.88799179   3.08856576   2.78595787
H   -0.91828994   2.85305749   2.51003555
H   -0.08809569   1.94270947   5.03756186
H   -0.88558676   0.84267882   3.91855464
H    0.88989201   0.91333185   4.01096776
14
Energy:   -17.5275509125
C   -0.03040641   1.49716121   4.03360844
C   -0.01715087   2.50526774   2.96230325
C   -0.05143014  -0.93943401   0.56608674
C   -0.08876416  -0.63349366  -0.72532611
C   -1.29871454  -0.41136755  -1.41621357
N   -2.27658978  -0.22966782  -1.98623646
H    0.80783651  -0.53447701  -1.32381530
H    0.88075477  -1.10310008   1.07923918
H   -0.95213319  -1.03155611   1.15031466
H    0.88880023   3.02560490   2.72032601
H   -0.92806761   2.81835505   2.49212876
H   -0.08137866   1.96972370   5.02473841
H   -0.89365839   0.83909795   3.94897123
H    0.88290026   0.89999969   4.02635676
14
Energy:   -17.5276201069
C   -0.03324189   1.49082348   4.03338306
C   -0.02327233   2.46466696   2.93084225
C   -0.04669294  -0.91895473   0.57964559
C   -0.08496475  -0.61376425  -0.71191932
C   -1.29541432  -0.39185463  -1.40196725
N   -2.27369559  -0.21023427  -1.97133177
H    0.81118142  -0.51502483  -1.31113609
H    0.88584509  -1.08214113   1.09228146
H   -0.94692306  -1.01055242   1.16464855
H    0.88502795   2.96617665   2.65979602
H   -0.93721504   2.77454472   2.46438076
H   -0.07540610   1.99445547   5.00954464
H   -0.90029879   0.83468751   3.97585121
H    0.87706835   0.88928547   4.03846289
14
Energy:   -17.5276937054
C   -0.03603813   1.48472398   4.03211102
C   -0.02933036   2.42394655   2.90005338
C   -0.04190557  -0.89835910   0.59358494
C   -0.08120887  -0.59383684  -0.69810927
C   -1.29220953  -0.37266507  -1.38738360
N   -2.27095283  -0.19152660  -1.95612365
H    0.81450749  -0.49433733  -1.29784558
H    0.89116234  -1.06058112   1.10560190
H   -0.94155582  -0.99023866   1.17936267
H    0.88121088   2.90517946   2.60064781
H   -0.94596377   2.73130787   2.43721655
H   -0.06926676   2.01806517   4.99273775
H   -0.90724213   0.83207482   4.00142635
H    0.87079105   0.87836087   4.04920173
14
Energy:   -17.5277738257
C   -0.03833273   1.47813646   4.02899160
C   -0.03427265   2.38357226   2.86975340
C   -0.03790705  -0.87766938   0.60842908
C   -0.07811568  -0.57398325  -0.68344855
C   -1.28959918  -0.35303267  -1.37189160
N   -2.26876501  -0.17197904  -1.93995189
H    0.81716251  -0.47475912  -1.28388301
H    0.89549741  -1.03942462   1.11994583
H   -0.93711599  -0.96909528   1.19491756
H    0.87701813   2.84908037   2.54864382
H   -0.95254525   2.68433293   2.40577809
H   -0.06705184   2.03958151   4.97362923
H   -0.91114234   0.82685109   4.02111922
H    0.86716765   0.87050275   4.06044920
14
Energy:   -17.5278598653
C   -0.04060539   1.47155314   4.02480695
C   -0.03897322   2.34326221   2.84005035
C   -0.03403909  -0.85679847   0.62373762
C   -0.07511975  -0.55392267  -0.66832709
C   -1.28708608  -0.33365198  -1.35606830
N   -2.26669297  -0.15306596  -1.92354382
H    0.81976877  -0.45425329  -1.26926664
H    0.89970961  -1.01759394   1.13489004
H   -0.93287065  -0.94845161   1.21074557
H    0.87303736   2.79224266   2.49814594
H   -0.95866166   2.63757833   2.37469337
H   -0.06516830   2.05991848   4.95305120
H   -0.91490489   0.82225880   4.03896094
H    0.86360425   0.86303830   4.07060588
14
Energy:   -17.5279533853
C   -0.04242356   1.46435458   4.01921318
C   -0.04157344   2.30370789   2.81137656
C   -0.03183655  -0.83498188   0.63981672
C   -0.07298877  -0.53278256  -0.65243689
C   -1.28517608  -0.31663731  -1.34101781
N   -2.26502356  -0.13931893  -1.90914268
H    0.82199040  -0.43018869  -1.25274473
H    0.90203440  -0.99230822   1.15177480
H   -0.93075609  -0.92946867   1.22620159
H    0.87105801   2.73870424   2.45347443
H   -0.96176183   2.59043851   2.34225335
H   -0.06382655   2.07764979   4.93126103
H   -0.91819258   0.81771151   4.05292392
H    0.86047421   0.85523373   4.07952855
14
Energy:   -17.5280553623
C   -0.04418767   1.45687368   4.01297626
C   -0.04392135   2.26406687   2.78335013
C   -0.02981499  -0.81296491   0.65613814
C   -0.07098892  -0.51124641  -0.63646992
C   -1.28326385  -0.30021113  -1.32611826
N   -2.26340167  -0.12701367  -1.89509590
H    0.82395663  -0.40590793  -1.23628586
H    0.90396469  -0.96660729   1.16920167
H   -0.92871389  -0.91065612   1.24192756
H    0.86933284   2.68551146   2.41120054
H   -0.96435431   2.54439406   2.31095022
H   -0.06240928   2.09446336   4.90822928
H   -0.92165669   0.81380052   4.06524318
H    0.85745646   0.84761151   4.08723497
14
Energy:   -17.5281657738
C   -0.04638589   1.44892509   4.00397750
C   -0.04709176   2.22608194   2.75551535
C   -0.02707445  -0.79027899   0.67410638
C   -0.06844978  -0.48975660  -0.61879993
C   -1.28101094  -0.28377419  -1.30948657
N   -2.26151960  -0.11476676  -1.87912471
H    0.82656430  -0.37974000  -1.21769032
H    0.90702689  -0.93993994   1.18771026
H   -0.92619277  -0.89275714   1.25868640
H    0.86759039   2.62738680   2.36510782
H   -0.96815196   2.50466156   2.28321154
H   -0.06030794   2.10770090   4.88391916
H   -0.92600469   0.81032472   4.07477311
H    0.85300617   0.83804661   4.09057601
14
Energy:   -17.5282886477
C   -0.04840254   1.44030320   3.99450253
C   -0.04986605   2.18841962   2.72843114
C   -0.02478055  -0.76693638   0.69235394
C   -0.06633787  -0.46741487  -0.60093583
C   -1.27889340  -0.26789236  -1.29310668
N   -2.25933157  -0.10426045  -1.86454617
H    0.82861109  -0.35395370  -1.19927131
H    0.90916668  -0.91295720   1.20722462
H   -0.92364315  -0.87444411   1.27635711
H    0.86592119   2.57029687   2.32167200
H   -0.97139506   2.46548767   2.25614281
H   -0.05822680   2.11995114   4.85845047
H   -0.93006928   0.80661325   4.08214377
H    0.84924532   0.82890130   4.09306362
14
Energy:   -17.5284272732
C   -0.04998838   1.43021172   3.98180866
C   -0.05151716   2.15236542   2.70087304
C   -0.02312517  -0.74354130   0.71238440
C   -0.06449456  -0.44604387  -0.58153004
C   -1.27701682  -0.25198343  -1.27506475
N   -2.25760825  -0.09257338  -1.84753613
H    0.83061046  -0.33028815  -1.17918140
H    0.91080074  -0.88598566   1.22823649
H   -0.92216678  -0.85429090   1.29542968
H    0.86496320   2.51886516   2.28173190
H   -0.97328836   2.42841874   2.22832765
H   -0.06143256   2.12743511   4.83162018
H   -0.93153141   0.79805641   4.08206118
H    0.84779305   0.82146815   4.09332115
14
Energy:   -17.5285849200
C   -0.05149958   1.41900419   3.96709327
C   -0.05265574   2.11742671   2.67313887
C   -0.02199649  -0.71996986   0.73361872
C   -0.06292441  -0.42518214  -0.56114705
C   -1.27521363  -0.23627829  -1.25615516
N   -2.25586017  -0.08084341  -1.82975701
H    0.83251315  -0.30731626  -1.15786570
H    0.91179416  -0.85859157   1.25067107
H   -0.92134987  -0.83331614   1.31559438
H    0.86422493   2.47390414   2.24624982
H   -0.97434439   2.38985105   2.19824107
H   -0.06422125   2.13198047   4.80369853
H   -0.93291024   0.78849820   4.07857775
H    0.84644152   0.81294693   4.09052344
14
Energy:   -17.5287650663
C   -0.05302430   1.40730825   3.95137537
C   -0.05370769   2.08299578   2.64548306
C   -0.02095282  -0.69619692   0.75541163
C   -0.06137977  -0.40444749  -0.54034022
C   -1.27335303  -0.22084312  -1.23687367
N   -2.25404681  -0.06950229  -1.81165240
H    0.83442722  -0.28449393  -1.13606157
H    0.91267167  -0.83109183   1.27365090
H   -0.92064721  -0.81235563   1.33620088
H    0.86354849   2.43045917   2.21195190
H   -0.97526699   2.35258879   2.16862095
H   -0.06682814   2.13508563   4.77509774
H   -0.93441369   0.77871935   4.07352134
H    0.84497107   0.80388825   4.08609608
14
Energy:   -17.5289727289
C   -0.05455917   1.39509091   3.93467282
C   -0.05467911   2.04908209   2.61785971
C   -0.01999206  -0.67223472   0.77775842
C   -0.05986095  -0.38389259  -0.51913393
C   -1.27143080  -0.20566898  -1.21722031
N   -2.25216819  -0.05849732  -1.79320465
H    0.83635262  -0.26190624  -1.11379868
H    0.91344164  -0.80363945   1.29712414
H   -0.92005810  -0.79148087   1.35722385
H    0.86291553   2.38881328   2.17886027
H   -0.97606913   2.31679137   2.13949445
H   -0.06927112   2.13676490   4.74586048
H   -0.93602260   0.76863963   4.06690529
H    0.84339944   0.79425199   4.08008014
14
Energy:   -17.5292137654
C   -0.05610173   1.38235295   3.91703263
C   -0.05557791   2.01566565   2.59022271
C   -0.01910968  -0.64811022   0.80063507
C   -0.05836697  -0.36357946  -0.49757139
C   -1.26944269  -0.19074069  -1.19720947
N   -2.25022512  -0.04776333  -1.77440876
H    0.83829034  -0.23963488  -1.09112376
H    0.91411659  -0.77644015   1.32101146
H   -0.91957761  -0.77081254   1.37861264
H    0.86230383   2.34922835   2.14699391
H   -0.97676627   2.28259631   2.11089578
H   -0.07158003   2.13709651   4.71602321
H   -0.93771175   0.75820853   4.05879638
H    0.84174701   0.78404697   4.07257158
14
Energy:   -17.5294949138
C   -0.05765038   1.36912032   3.89852595
C   -0.05641540   1.98270299   2.56253261
C   -0.01829714  -0.62385721   0.82400163
C   -0.05689540  -0.34356881  -0.47571268
C   -1.26738503  -0.17603261  -1.17686771
N   -2.24822225  -0.03722224  -1.75526760
H    0.84024250  -0.21774160  -1.06809726
H    0.91471706  -0.74974940   1.34520428
H   -0.91919563  -0.75052913   1.40028873
H    0.86168536   2.31192920   2.11636764
H   -0.97737654   2.25013284   2.08287744
H   -0.07378794   2.13620745   4.68561323
H   -0.93945459   0.74740505   4.04930912
H    0.84003338   0.77331718   4.06370663
14
Energy:   -17.5298238450
C   -0.05920383   1.35544575   3.87924679
C   -0.05720550   1.95013273   2.53475884
C   -0.01754333  -0.59951212   0.84780629
C   -0.05544399  -0.32391562  -0.45363256
C   -1.26525541  -0.16150944  -1.15623320
N   -2.24616597  -0.02678702  -1.73579724
H    0.84221057  -0.19625866  -1.04478983
H    0.91527071  -0.72387372   1.36956627
H   -0.91889723  -0.73087343   1.42214669
H    0.86102563   2.27709683   2.08699468
H   -0.97791872   2.21951483   2.05550758
H   -0.07592718   2.13427086   4.65464803
H   -0.94122391   0.73624220   4.03860257
H    0.83827618   0.76214081   4.05365710
14
Energy:   -17.5302094737
C   -0.06076153   1.34140953   3.85930819
C   -0.05796486   1.91788430   2.50688104
C   -0.01683445  -0.57510910   0.87199154
C   -0.05401044  -0.30466526  -0.43141863
C   -1.26305070  -0.14712221  -1.13535373
N   -2.24406602  -0.01636074  -1.71602084
H    0.84419652  -0.17518350  -1.02127836
H    0.91581136  -0.69917242   1.39393769
H   -0.91866129  -0.71215777   1.44405608
H    0.86028242   2.24485912   2.05888498
H   -0.97841145   2.19083260   2.02886537
H   -0.07802903   2.13150099   4.62313361
H   -0.94299295   0.72476847   4.02687218
H    0.83649042   0.75062999   4.04262289
14
Energy:   -17.5306631635
C   -0.06232264   1.32711745   3.83883683
C   -0.05871100   1.88589167   2.47888993
C   -0.01615714  -0.55067275   0.89650452
C   -0.05259525  -0.28584977  -0.40916621
C   -1.26076740  -0.13281336  -1.11428430
N   -2.24193178  -0.00584210  -1.69597385
H    0.84620053  -0.15447301  -0.99763914
H    0.91637528  -0.67605152   1.41814173
H   -0.91846146  -0.69476599   1.46586655
H    0.85940676   2.21529095   2.03204551
H   -0.97887020   2.16415189   2.00303711
H   -0.08012074   2.12814076   4.59106759
H   -0.94473491   0.71306543   4.01433648
H    0.83468795   0.73892435   4.03081925
14
Energy:   -17.5312015199
C   -0.06388539   1.31269701   3.81796926
C   -0.05945790   1.85410658   2.45078920
C   -0.01550295  -0.52620966   0.92130533
C   -0.05120357  -0.26748165  -0.38697790
C   -1.25839961  -0.11851891  -1.09308936
N   -2.23977425   0.00485067  -1.67570531
H    0.84822112  -0.13404230  -0.97394476
H    0.91699279  -0.65495888   1.44198980
H   -0.91826791  -0.67914434   1.48740981
H    0.85834772   2.18842301   2.00648711
H   -0.97930087   2.13952007   1.97811485
H   -0.08222201   2.12444680   4.55844555
H   -0.94642497   0.70124498   4.00122284
H    0.83287578   0.72718063   4.01846558
14
Energy:   -17.5318509216
C   -0.06544753   1.29828791   3.79683533
C   -0.06021292   1.82251737   2.42258871
C   -0.01487222  -0.50170476   0.94638397
C   -0.04984609  -0.24956283  -0.36495797
C   -1.25593744  -0.10418106  -1.07183386
N   -2.23760651   0.01577451  -1.65526518
H    0.85025878  -0.11376991  -0.95025006
H    0.91768272  -0.63635999   1.46529132
H   -0.91804976  -0.66577436   1.50850867
H    0.85705922   2.16426396   1.98223218
H   -0.97969827   2.11697769   1.95419254
H   -0.08434384   2.12066332   4.52526270
H   -0.94803905   0.68943184   3.98773602
H    0.83105092   0.71555031   4.00575764
14
Energy:   -17.5326534600
C   -0.06700732   1.28402800   3.77548079
C   -0.06090011   1.79143332   2.39443377
C   -0.01430995  -0.47679421   0.97181894
C   -0.04850912  -0.23173865  -0.34302681
C   -1.25347760  -0.08986873  -1.05059862
N   -2.23556079   0.02646422  -1.63472860
H    0.85241984  -0.09370916  -0.92643796
H    0.91850395  -0.62054365   1.48774048
H   -0.91797577  -0.65489534   1.52878985
H    0.85569830   2.14274176   1.95937730
H   -0.97998059   2.09658681   1.93131418
H   -0.08645912   2.11689239   4.49161859
H   -0.94950182   0.67761335   3.97391655
H    0.82905810   0.70390390   3.99278353
14
Energy:   -17.5336746735
C   -0.06856112   1.27067759   3.75501634
C   -0.06182645   1.75922899   2.36616274
C   -0.01362030  -0.45277124   0.99695310
C   -0.04728205  -0.21497130  -0.32236847
C   -1.25064439  -0.07469167  -1.02980911
N   -2.23344476   0.03917838  -1.61415127
H    0.85439783  -0.07286066  -0.90350076
H    0.91929157  -0.60942923   1.50887727
H   -0.91717141  -0.64850284   1.54808982
H    0.85338373   2.12334031   1.93774443
H   -0.98039765   2.07665070   1.90937997
H   -0.08875018   2.11500781   4.45708837
H   -0.95084115   0.66699192   3.96165084
H    0.82746433   0.69426527   3.98134874
14
Energy:   -17.5350087575
C   -0.06986126   1.25722758   3.73381295
C   -0.06205077   1.72982681   2.33864482
C   -0.01376543  -0.42648104   1.02385176
C   -0.04658275  -0.19685981  -0.30098345
C   -1.24801040  -0.05949153  -1.00867046
N   -2.23097489   0.04560327  -1.59548929
H    0.85602550  -0.05178048  -0.87979726
H    0.91959186  -0.59942689   1.52967558
H   -0.91766875  -0.64206100   1.56692188
H    0.85265597   2.10453197   1.91738336
H   -0.97998656   2.06159532   1.88987830
H   -0.09104957   2.11057746   4.42433089
H   -0.95218283   0.65563145   3.94604093
H    0.82585787   0.68322088   3.96688198
14
Energy:   -17.5367924374
C   -0.07131390   1.24499406   3.71413221
C   -0.06285951   1.69892072   2.31090148
C   -0.01335467  -0.40115371   1.04990452
C   -0.04568203  -0.17975067  -0.28143225
C   -1.24516696  -0.04449546  -0.98868154
N   -2.22901326   0.05727083  -1.57590342
H    0.85810800  -0.03102243  -0.85730779
H    0.92011627  -0.59500474   1.54843269
H   -0.91647198  -0.64188777   1.58414892
H    0.85006259   2.08845179   1.89777037
H   -0.97997176   2.04555884   1.87031759
H   -0.09348981   2.10931824   4.39000028
H   -0.95324231   0.64606680   3.93427429
H    0.82427731   0.67484749   3.95592466
14
Energy:   -17.5391975473
C   -0.07274737   1.23476900   3.69633072
C   -0.06398001   1.66645298   2.28399889
C   -0.01272090  -0.37660382   1.07573665
C   -0.04491980  -0.16308002  -0.26379785
C   -1.24204386  -0.02874638  -0.96977153
N   -2.22708357   0.07128682  -1.55696270
H    0.86003257  -0.00971475  -0.83642537
H    0.92112496  -0.59674749   1.56343567
H   -0.91460279  -0.64764852   1.59824992
H    0.84640104   2.07317486   1.87986179
H   -0.98026424   2.02887751   1.85254368
H   -0.09625659   2.11228106   4.35400723
H   -0.95363038   0.63844417   3.92654882
H    0.82268894   0.66936858   3.94872608
14
Energy:   -17.5424226337
C   -0.07406861   1.22552680   3.67957502
C   -0.06482569   1.63458895   2.25805863
C   -0.01251661  -0.35112725   1.10217832
C   -0.04456065  -0.14560581  -0.24743333
C   -1.23883104  -0.01376233  -0.95201182
N   -2.22534762   0.08347492  -1.53923743
H    0.86195744   0.01197612  -0.81615744
H    0.92121629  -0.60097605   1.57699725
H   -0.91227460  -0.65577885   1.61093665
H    0.84279767   2.05852155   1.86318480
H   -0.97992761   2.01334010   1.83602678
H   -0.09842781   2.11542668   4.31917358
H   -0.95416216   0.63213252   3.91930717
H    0.82096901   0.66437666   3.94188381
14
Energy:   -17.5466654093
C   -0.07525186   1.21707519   3.66414302
C   -0.06534667   1.60326784   2.23318569
C   -0.01271423  -0.32473402   1.12924283
C   -0.04455081  -0.12734432  -0.23236233
C   -1.23557552  -0.00000005  -0.93561723
N   -2.22376615   0.09311676  -1.52306212
H    0.86374273   0.03323449  -0.79705455
H    0.92054565  -0.60638392   1.58884836
H   -0.90983810  -0.66439781   1.62197621
H    0.83940401   2.04451590   1.84817407
H   -0.97899026   1.99884362   1.82106908
H   -0.09973860   2.11854304   4.28578168
H   -0.95492324   0.62703474   3.91266959
H    0.81900106   0.65934254   3.93548771
14
Energy:   -17.5520673831
C   -0.07629966   1.20949354   3.65040225
C   -0.06543616   1.57170473   2.20977656
C   -0.01334358  -0.29757297   1.15618561
C   -0.04484727  -0.10773310  -0.21883636
C   -1.23252730   0.01257953  -0.92093665
N   -2.22260960   0.09972414  -1.50864558
H    0.86563457   0.05480681  -0.77900040
H    0.91891965  -0.61201183   1.59875439
H   -0.90730098  -0.67252995   1.63107821
H    0.83638364   2.02936688   1.83426793
H   -0.97720650   1.98384070   1.80711994
H   -0.10003001   2.12225146   4.25366334
H   -0.95599808   0.62368284   3.90785041
H    0.81665930   0.65451121   3.93080235
14
Energy:   -17.5586400405
C   -0.07706187   1.20258534   3.63865485
C   -0.06502554   1.53971093   2.18799897
C   -0.01455488  -0.26966818   1.18280698
C   -0.04567989  -0.08650961  -0.20682201
C   -1.22954918   0.02311379  -0.90843740
N   -2.22130130   0.10148900  -1.49727519
H    0.86685403   0.07645763  -0.76296233
H    0.91622553  -0.61611604   1.60712981
H   -0.90520254  -0.67758067   1.63898268
H    0.83396198   2.01317613   1.82207862
H   -0.97449532   1.96861795   1.79469093
H   -0.09839100   2.12585012   4.22373727
H   -0.95761904   0.62213408   3.90448168
H    0.81383699   0.64885354   3.92741715
14
Energy:   -17.5661620261
C   -0.07731569   1.19564305   3.62764153
C   -0.06329615   1.50751859   2.16728405
C   -0.01691332  -0.24107283   1.20892065
C   -0.04707158  -0.06408041  -0.19519522
C   -1.22715756   0.03178348  -0.89746378
N   -2.22014677   0.09903269  -1.48805299
H    0.86763753   0.09963955  -0.74700782
H    0.91145875  -0.61875232   1.61503546
H   -0.90451380  -0.67912498   1.64584545
H    0.83344300   1.99493315   1.81063925
H   -0.96962933   1.95402863   1.78301486
H   -0.09854457   2.12865250   4.19508760
H   -0.95806351   0.61924698   3.90111086
H    0.81211099   0.64466592   3.92562211
14
Energy:   -17.5743593470
C   -0.07723740   1.18833397   3.61719578
C   -0.06029078   1.47523216   2.14749656
C   -0.02043014  -0.21154253   1.23410330
C   -0.04882294  -0.03993703  -0.18378253
C   -1.22515947   0.03725520  -0.88778273
N   -2.21893709   0.08920464  -1.48074175
H    0.86777602   0.12687146  -0.73100521
H    0.90453499  -0.61906730   1.62270241
H   -0.90563227  -0.67574745   1.65183639
H    0.83498882   1.97500892   1.80050579
H   -0.96235214   1.94065754   1.77205949
H   -0.09714786   2.13002134   4.16821437
H   -0.95914206   0.61712695   3.89746216
H    0.80985033   0.63869612   3.92421798
14
Energy:   -17.5830095802
C   -0.07664741   1.18050967   3.60713796
C   -0.05585823   1.44301799   2.12850439
C   -0.02545517  -0.18099052   1.25833948
C   -0.05123665  -0.01399644  -0.17223982
C   -1.22347253   0.03874612  -0.87951736
N   -2.21713979   0.07039798  -1.47587220
H    0.86682932   0.16074442  -0.71406138
H    0.89497601  -0.61782071   1.63006400
H   -0.90927388  -0.66731588   1.65712625
H    0.83902161   1.95346336   1.79175377
H   -0.95230938   1.92921173   1.76195355
H   -0.09333875   2.12983276   4.14311432
H   -0.96100937   0.61613629   3.89331592
H    0.80691223   0.63017724   3.92286312
14
Energy:   -17.5914375848
C   -0.07580101   1.17241536   3.59671916
C   -0.05129581   1.41092980   2.10940926
C   -0.03064145  -0.15020876   1.28243085
C   -0.05372778   0.01145145  -0.15981163
C   -1.22165885   0.03947990  -0.87092846
N   -2.21426263   0.05046807  -1.47121006
H    0.86531134   0.19533358  -0.69665277
H    0.88444470  -0.61588822   1.63726474
H   -0.91369114  -0.65593554   1.66270221
H    0.84317030   1.93200688   1.78305534
H   -0.94212298   1.91743826   1.75207735
H   -0.08943278   2.12873464   4.11841085
H   -0.96255942   0.61458452   3.88827500
H    0.80426550   0.62130407   3.92074018
14
Energy:   -17.5987984192
C   -0.07188932   1.16246173   3.58924655
C   -0.03977489   1.38095565   2.09407359
C   -0.04443695  -0.11395494   1.30402212
C   -0.06138987   0.04785773  -0.14851248
C   -1.21997896   0.02089756  -0.87074358
N   -2.20709478  -0.01471681  -1.48024916
H    0.85615611   0.26872347  -0.67367441
H    0.86076892  -0.61576065   1.64170049
H   -0.93131522  -0.63141016   1.66384091
H    0.86066658   1.90374000   1.78101512
H   -0.91819517   1.91951189   1.74731518
H   -0.07223621   2.12361161   4.10051885
H   -0.96750043   0.62020031   3.88321620
H    0.79821820   0.59999662   3.92071262
14
Energy:   -17.6041125181
C   -0.06006178   1.14850886   3.58811417
C   -0.01539348   1.35670316   2.08648997
C   -0.07775387  -0.06443790   1.32199940
C   -0.08377531   0.10899163  -0.13885385
C   -1.21366742  -0.03801103  -0.88768590
N   -2.17790545  -0.17655939  -1.51976693
H    0.82062234   0.42386268  -0.63836546
H    0.80608306  -0.62316924   1.63700559
H   -0.97804780  -0.57873797   1.65745628
H    0.90365698   1.86172222   1.79134424
H   -0.86666091   1.95029184   1.75519926
H   -0.02334182   2.10954101   4.09681230
H   -0.97715688   0.64216101   3.88004161
H    0.78540035   0.55124712   3.92269133
14
Energy:   -17.6061918578
C   -0.03002030   1.12686660   3.59718633
C    0.02610821   1.34049599   2.09097929
C   -0.15141816   0.01203733   1.33453828
C   -0.14570884   0.21743606  -0.13099726
C   -1.17947046  -0.16295484  -0.93167956
N   -2.05920540  -0.50667298  -1.60805372
H    0.69826445   0.71640188  -0.58422755
H    0.68232840  -0.64560776   1.61056368
H   -1.08139748  -0.46924970   1.64407078
H    0.98294000   1.78927587   1.81540350
H   -0.76697563   2.02813004   1.78997780
H    0.08840253   2.07493648   4.11627864
H   -0.98505534   0.69454521   3.88709889
H    0.76320601   0.45647383   3.92134291
14
Energy:   -17.6061918578
C   -0.01893580   1.12009536   3.59926842
C    0.02740601   1.34717683   2.09552083
C   -0.17495036   0.03008400   1.33270024
C   -0.16325542   0.23535229  -0.13336920
C   -1.15823344  -0.19039209  -0.93943066
N   -2.00770015  -0.56928521  -1.61928101
H    0.67014969   0.75159987  -0.58224822
H    0.64219123  -0.64519280   1.60576238
H   -1.11243116  -0.43464857   1.64088597
H    0.98715077   1.78456045   1.81468443
H   -0.75648947   2.04804136   1.80901654
H    0.11944832   2.05900750   4.12484934
H   -0.97677091   0.70045954   3.89501944
H    0.76441870   0.43525546   3.90910351
14
Energy:   -17.6061918578
C   -0.00785130   1.11332411   3.60135050
C    0.02870382   1.35385768   2.10006237
C   -0.19848255   0.04813068   1.33086220
C   -0.18080201   0.25326853  -0.13574115
C   -1.13699642  -0.21782934  -0.94718175
N   -1.95619491  -0.63189744  -1.63050829
H    0.64203493   0.78679785  -0.58026889
H    0.60205405  -0.64477783   1.60096109
H   -1.14346485  -0.40004744   1.63770115
H    0.99136153   1.77984504   1.81396536
H   -0.74600330   2.06795268   1.82805528
H    0.15049411   2.04307852   4.13342003
H   -0.96848649   0.70637387   3.90293998
H    0.76563139   0.41403708   3.89686411
14
Energy:   -17.6061918578
C    0.00323321   1.10655287   3.60343259
C    0.03000162   1.36053853   2.10460391
C   -0.22201475   0.06617735   1.32902416
C   -0.19834859   0.27118476  -0.13811309
C   -1.11575939  -0.24526658  -0.95493285
N   -1.90468966  -0.69450966  -1.64173558
H    0.61392017   0.82199583  -0.57828955
H    0.56191687  -0.64436286   1.59615980
H   -1.17449853  -0.36544630   1.63451633
H    0.99557229   1.77512963   1.81324629
H   -0.73551713   2.08786400   1.84709402
H    0.18153990   2.02714954   4.14199073
H   -0.96020206   0.71228819   3.91086053
H    0.76684408   0.39281871   3.88462471
14
Energy:   -17.6061918578
C    0.01431771   1.09978162   3.60551467
C    0.03129943   1.36721938   2.10914545
C   -0.24554695   0.08422402   1.32718612
C   -0.21589518   0.28910100  -0.14048504
C   -1.09452237  -0.27270383  -0.96268394
N   -1.85318442  -0.75712189  -1.65296286
H    0.58580540   0.85719381  -0.57631022
H    0.52177970  -0.64394789   1.59135851
H   -1.20553221  -0.33084517   1.63133152
H    0.99978305   1.77041422   1.81252722
H   -0.72503096   2.10777532   1.86613276
H    0.21258569   2.01122056   4.15056142
H   -0.95191764   0.71820252   3.91878108
H    0.76805677   0.37160034   3.87238530
14
Energy:   -17.6061918578
C    0.02540221   1.09301037   3.60759676
C    0.03259723   1.37390023   2.11368700
C   -0.26907915   0.10227069   1.32534808
C   -0.23344176   0.30701723  -0.14285699
C   -1.07328535  -0.30014108  -0.97043503
N   -1.80167918  -0.81973412  -1.66419014
H    0.55769064   0.89239179  -0.57433088
H    0.48164252  -0.64353292   1.58655722
H   -1.23656590  -0.29624404   1.62814670
H    1.00399381   1.76569881   1.81180815
H   -0.71454479   2.12768664   1.88517150
H    0.24363148   1.99529158   4.15913212
H   -0.94363321   0.72411685   3.92670163
H    0.76926946   0.35038197   3.86014590
14
Energy:   -17.6061918578
C    0.03648671   1.08623913   3.60967885
C    0.03389503   1.38058108   2.11822854
C   -0.29261135   0.12031736   1.32351005
C   -0.25098835   0.32493347  -0.14522893
C   -1.05204833  -0.32757832  -0.97818613
N   -1.75017393  -0.88234635  -1.67541743
H    0.52957588   0.92758978  -0.57235155
H    0.44150535  -0.64311796   1.58175592
H   -1.26759958  -0.26164291   1.62496189
H    1.00820457   1.76098340   1.81108908
H   -0.70405863   2.14759796   1.90421023
H    0.27467726   1.97936260   4.16770282
H   -0.93534879   0.73003118   3.93462217
H    0.77048215   0.32916360   3.84790650
14
Energy:   -17.6061918578
C    0.04757121   1.07946788   3.61176093
C    0.03519284   1.38726193   2.12277008
C   -0.31614354   0.13836403   1.32167201
C   -0.26853493   0.34284970  -0.14760088
C   -1.03081131  -0.35501557  -0.98593722
N   -1.69866869  -0.94495858  -1.68664471
H    0.50146112   0.96278776  -0.57037222
H    0.40136817  -0.64270299   1.57695463
H   -1.29863327  -0.22704178   1.62177707
H    1.01241533   1.75626799   1.81037001
H   -0.69357246   2.16750928   1.92324897
H    0.30572305   1.96343362   4.17627351
H   -0.92706437   0.73594551   3.94254272
H    0.77169483   0.30794522   3.83566710
14
Energy:   -17.6061918578
C    0.05865571   1.07269663   3.61384302
C    0.03649064   1.39394278   2.12731162
C   -0.33967574   0.15641070   1.31983397
C   -0.28608152   0.36076593  -0.14997283
C   -1.00957428  -0.38245282  -0.99368832
N   -1.64716344  -1.00757081  -1.69787200
H    0.47334636   0.99798574  -0.56839288
H    0.36123100  -0.64228802   1.57215334
H   -1.32966695  -0.19244064   1.61859226
H    1.01662609   1.75155258   1.80965093
H   -0.68308629   2.18742060   1.94228771
H    0.33676884   1.94750464   4.18484421
H   -0.91877994   0.74185983   3.95046327
H    0.77290752   0.28672685   3.82342770
14
Energy:   -17.6061918578
C    0.06974022   1.06592539   3.61592510
C    0.03778844   1.40062363   2.13185317
C   -0.36320794   0.17445738   1.31799593
C   -0.30362810   0.37868217  -0.15234477
C   -0.98833726  -0.40989006  -1.00143941
N   -1.59565820  -1.07018303  -1.70909928
H    0.44523160   1.03318372  -0.56641355
H    0.32109382  -0.64187305   1.56735205
H   -1.36070063  -0.15783951   1.61540744
H    1.02083685   1.74683717   1.80893186
H   -0.67260012   2.20733191   1.96132645
H    0.36781463   1.93157566   4.19341491
H   -0.91049552   0.74777416   3.95838381
H    0.77412021   0.26550848   3.81118829
14
Energy:   -17.6061918578
C    0.08082472   1.05915414   3.61800719
C    0.03908625   1.40730448   2.13639471
C   -0.38674014   0.19250405   1.31615789
C   -0.32117469   0.39659840  -0.15471672
C   -0.96710024  -0.43732731  -1.00919050
N   -1.54415296  -1.13279526  -1.72032656
H    0.41711683   1.06838171  -0.56443422
H    0.28095664  -0.64145808   1.56255075
H   -1.39173432  -0.12323838   1.61222263
H    1.02504761   1.74212176   1.80821279
H   -0.66211395   2.22724323   1.98036519
H    0.39886042   1.91564668   4.20198560
H   -0.90221109   0.75368849   3.96630436
H    0.77533290   0.24429011   3.79894889
22
Energy:   -17.6061918578
C    0.09190922   1.05238289   3.62008928
C    0.04038405   1.41398533   2.14093625
C   -0.41027233   0.21055072   1.31431985
C   -0.33872127   0.41451464  -0.15708867
C   -0.94586322  -0.46476455  -1.01694160
N   -1.49264771  -1.19540749  -1.73155385
C   -2.48914582  12.47073013  -0.36773309
S   -3.51159143  12.27796439   1.11420953
C   -4.26393287  10.72507295   0.76283430
O   -5.01385316  10.16536797   1.49960966
H    0.38900207   1.10357969  -0.56245488
H    0.24081947  -0.64104312   1.55774946
H   -1.42276800  -0.08863725   1.60903781
H    1.02925837   1.73740634   1.80749372
H   -0.65162779   2.24715455   1.99940393
H    0.42990621   1.89971770   4.21055630
H   -0.89392667   0.75960282   3.97422491
H    0.77654559   0.22307174   3.78670949
H   -1.65340525  11.75318137  -0.31390177
H   -2.09715971  13.48164662  -0.37171954
H   -3.07477364  12.28147936  -1.26143118
H   -3.94882766  10.34152042  -0.21998574
22
Energy:   -17.6061918578
C    0.09190922   1.05238289   3.62008928
C    0.04038405   1.41398533   2.14093625
C   -0.41027233   0.21055072   1.31431985
C   -0.33872127   0.41451464  -0.15708867
C   -0.94586322  -0.46476455  -1.01694160
N   -1.49264771  -1.19540749  -1.73155385
C   -2.48914582  12.12590255  -0.36773309
S   -3.51159143  11.93313680   1.11420953
C   -4.26393287  10.38024536   0.76283430
O   -5.01385316   9.82054038   1.49960966
H    0.38900207   1.10357969  -0.56245488
H    0.24081947  -0.64104312   1.55774946
H   -1.42276800  -0.08863725   1.60903781
H    1.02925837   1.73740634   1.80749372
H   -0.65162779   2.24715455   1.99940393
H    0.42990621   1.89971770   4.21055630
H   -0.89392667   0.75960282   3.97422491
H    0.77654559   0.22307174   3.78670949
H   -1.65340525  11.40835379  -0.31390177
H   -2.09715971  13.13681904  -0.37171954
H   -3.07477364  11.93665177  -1.26143118
H   -3.94882766   9.99669283  -0.21998574
22
Energy:   -17.6061918578
C    0.09190922   1.05238289   3.62008928
C    0.04038405   1.41398533   2.14093625
C   -0.41027233   0.21055072   1.31431985
C   -0.33872127   0.41451464  -0.15708867
C   -0.94586322  -0.46476455  -1.01694160
N   -1.49264771  -1.19540749  -1.73155385
C   -2.48914582  11.78107496  -0.36773309
S   -3.51159143  11.58830922   1.11420953
C   -4.26393287  10.03541777   0.76283430
O   -5.01385316   9.47571279   1.49960966
H    0.38900207   1.10357969  -0.56245488
H    0.24081947  -0.64104312   1.55774946
H   -1.42276800  -0.08863725   1.60903781
H    1.02925837   1.73740634   1.80749372
H   -0.65162779   2.24715455   1.99940393
H    0.42990621   1.89971770   4.21055630
H   -0.89392667   0.75960282   3.97422491
H    0.77654559   0.22307174   3.78670949
H   -1.65340525  11.06352620  -0.31390177
H   -2.09715971  12.79199145  -0.37171954
H   -3.07477364  11.59182418  -1.26143118
H   -3.94882766   9.65186524  -0.21998574
22
Energy:   -17.6061918578
C    0.09190922   1.05238289   3.62008928
C    0.04038405   1.41398533   2.14093625
C   -0.41027233   0.21055072   1.31431985
C   -0.33872127   0.41451464  -0.15708867
C   -0.94586322  -0.46476455  -1.01694160
N   -1.49264771  -1.19540749  -1.73155385
C   -2.48914582  11.43624737  -0.36773309
S   -3.51159143  11.24348163   1.11420953
C   -4.26393287   9.69059019   0.76283430
O   -5.01385316   9.13088521   1.49960966
H    0.38900207   1.10357969  -0.56245488
H    0.24081947  -0.64104312   1.55774946
H   -1.42276800  -0.08863725   1.60903781
H    1.02925837   1.73740634   1.80749372
H   -0.65162779   2.24715455   1.99940393
H    0.42990621   1.89971770   4.21055630
H   -0.89392667   0.75960282   3.97422491
H    0.77654559   0.22307174   3.78670949
H   -1.65340525  10.71869862  -0.31390177
H   -2.09715971  12.44716387  -0.37171954
H   -3.07477364  11.24699660  -1.26143118
H   -3.94882766   9.30703766  -0.21998574
22
Energy:   -17.6061918578
C    0.09190922   1.05238289   3.62008928
C    0.04038405   1.41398533   2.14093625
C   -0.41027233   0.21055072   1.31431985
C   -0.33872127   0.41451464  -0.15708867
C   -0.94586322  -0.46476455  -1.01694160
N   -1.49264771  -1.19540749  -1.73155385
C   -2.48914582  11.09141979  -0.36773309
S   -3.51159143  10.89865404   1.11420953
C   -4.26393287   9.34576260   0.76283430
O   -5.01385316   8.78605762   1.49960966
H    0.38900207   1.10357969  -0.56245488
H    0.24081947  -0.64104312   1.55774946
H   -1.42276800  -0.08863725   1.60903781
H    1.02925837   1.73740634   1.80749372
H   -0.65162779   2.24715455   1.99940393
H    0.42990621   1.89971770   4.21055630
H   -0.89392667   0.75960282   3.97422491
H    0.77654559   0.22307174   3.78670949
H   -1.65340525  10.37387103  -0.31390177
H   -2.09715971  12.10233628  -0.37171954
H   -3.07477364  10.90216901  -1.26143118
H   -3.94882766   8.96221007  -0.21998574
22
Energy:   -17.6061918578
C    0.09190922   1.05238289   3.62008928
C    0.04038405   1.41398533   2.14093625
C   -0.41027233   0.21055072   1.31431985
C   -0.33872127   0.41451464  -0.15708867
C   -0.94586322  -0.46476455  -1.01694160
N   -1.49264771  -1.19540749  -1.73155385
C   -2.48914582  10.74659220  -0.36773309
S   -3.51159143  10.55382646   1.11420953
C   -4.26393287   9.00093501   0.76283430
O   -5.01385316   8.44123004   1.49960966
H    0.38900207   1.10357969  -0.56245488
H    0.24081947  -0.64104312   1.55774946
H   -1.42276800  -0.08863725   1.60903781
H    1.02925837   1.73740634   1.80749372
H   -0.65162779   2.24715455   1.99940393
H    0.42990621   1.89971770   4.21055630
H   -0.89392667   0.75960282   3.97422491
H    0.77654559   0.22307174   3.78670949
H   -1.65340525  10.02904344  -0.31390177
H   -2.09715971  11.75750869  -0.37171954
H   -3.07477364  10.55734142  -1.26143118
H   -3.94882766   8.61738248  -0.21998574
22
Energy:   -17.6061918578
C    0.09190922   1.05238289   3.62008928
C    0.04038405   1.41398533   2.14093625
C   -0.41027233   0.21055072   1.31431985
C   -0.33872127   0.41451464  -0.15708867
C   -0.94586322  -0.46476455  -1.01694160
N   -1.49264771  -1.19540749  -1.73155385
C   -2.48914582  10.40176461  -0.36773309
S   -3.51159143  10.20899887   1.11420953
C   -4.26393287   8.65610743   0.76283430
O   -5.01385316   8.09640245   1.49960966
H    0.38900207   1.10357969  -0.56245488
H    0.24081947  -0.64104312   1.55774946
H   -1.42276800  -0.08863725   1.60903781
H    1.02925837   1.73740634   1.80749372
H   -0.65162779   2.24715455   1.99940393
H    0.42990621   1.89971770   4.21055630
H   -0.89392667   0.75960282   3.97422491
H    0.77654559   0.22307174   3.78670949
H   -1.65340525   9.68421586  -0.31390177
H   -2.09715971  11.41268111  -0.37171954
H   -3.07477364  10.21251384  -1.26143118
H   -3.94882766   8.27255490  -0.21998574
22
Energy:   -17.6061918578
C    0.09190922   1.05238289   3.62008928
C    0.04038405   1.41398533   2.14093625
C   -0.41027233   0.21055072   1.31431985
C   -0.33872127   0.41451464  -0.15708867
C   -0.94586322  -0.46476455  -1.01694160
N   -1.49264771  -1.19540749  -1.73155385
C   -2.48914582  10.05693703  -0.36773309
S   -3.51159143   9.86417129   1.11420953
C   -4.26393287   8.31127984   0.76283430
O   -5.01385316   7.75157486   1.49960966
H    0.38900207   1.10357969  -0.56245488
H    0.24081947  -0.64104312   1.55774946
H   -1.42276800  -0.08863725   1.60903781
H    1.02925837   1.73740634   1.80749372
H   -0.65162779   2.24715455   1.99940393
H    0.42990621   1.89971770   4.21055630
H   -0.89392667   0.75960282   3.97422491
H    0.77654559   0.22307174   3.78670949
H   -1.65340525   9.33938827  -0.31390177
H   -2.09715971  11.06785352  -0.37171954
H   -3.07477364   9.86768625  -1.26143118
H   -3.94882766   7.92772731  -0.21998574
22
Energy:   -17.6061918578
C    0.09190922   1.05238289   3.62008928
C    0.04038405   1.41398533   2.14093625
C   -0.41027233   0.21055072   1.31431985
C   -0.33872127   0.41451464  -0.15708867
C   -0.94586322  -0.46476455  -1.01694160
N   -1.49264771  -1.19540749  -1.73155385
C   -2.48914582   9.71210944  -0.36773309
S   -3.51159143   9.51934370   1.11420953
C   -4.26393287   7.96645226   0.76283430
O   -5.01385316   7.40674728   1.49960966
H    0.38900207   1.10357969  -0.56245488
H    0.24081947  -0.64104312   1.55774946
H   -1.42276800  -0.08863725   1.60903781
H    1.02925837   1.73740634   1.80749372
H   -0.65162779   2.24715455   1.99940393
H    0.42990621   1.89971770   4.21055630
H   -0.89392667   0.75960282   3.97422491
H    0.77654559   0.22307174   3.78670949
H   -1.65340525   8.99456069  -0.31390177
H   -2.09715971  10.72302593  -0.37171954
H   -3.07477364   9.52285867  -1.26143118
H   -3.94882766   7.58289973  -0.21998574
22
Energy:   -17.6061918578
C    0.09190922   1.05238289   3.62008928
C    0.04038405   1.41398533   2.14093625
C   -0.41027233   0.21055072   1.31431985
C   -0.33872127   0.41451464  -0.15708867
C   -0.94586322  -0.46476455  -1.01694160
N   -1.49264771  -1.19540749  -1.73155385
C   -2.48914582   9.36728186  -0.36773309
S   -3.51159143   9.17451611   1.11420953
C   -4.26393287   7.62162467   0.76283430
O   -5.01385316   7.06191969   1.49960966
H    0.38900207   1.10357969  -0.56245488
H    0.24081947  -0.64104312   1.55774946
H   -1.42276800  -0.08863725   1.60903781
H    1.02925837   1.73740634   1.80749372
H   -0.65162779   2.24715455   1.99940393
H    0.42990621   1.89971770   4.21055630
H   -0.89392667   0.75960282   3.97422491
H    0.77654559   0.22307174   3.78670949
H   -1.65340525   8.64973310  -0.31390177
H   -2.09715971  10.37819835  -0.37171954
H   -3.07477364   9.17803108  -1.26143118
H   -3.94882766   7.23807214  -0.21998574
22
Energy:   -17.6061918578
C    0.09190922   1.05238289   3.62008928
C    0.04038405   1.41398533   2.14093625
C   -0.41027233   0.21055072   1.31431985
C   -0.33872127   0.41451464  -0.15708867
C   -0.94586322  -0.46476455  -1.01694160
N   -1.49264771  -1.19540749  -1.73155385
C   -2.48914582   9.02245427  -0.36773309
S   -3.51159143   8.82968853   1.11420953
C   -4.26393287   7.27679708   0.76283430
O   -5.01385316   6.71709210   1.49960966
H    0.38900207   1.10357969  -0.56245488
H    0.24081947  -0.64104312   1.55774946
H   -1.42276800  -0.08863725   1.60903781
H    1.02925837   1.73740634   1.80749372
H   -0.65162779   2.24715455   1.99940393
H    0.42990621   1.89971770   4.21055630
H   -0.89392667   0.75960282   3.97422491
H    0.77654559   0.22307174   3.78670949
H   -1.65340525   8.30490551  -0.31390177
H   -2.09715971  10.03337076  -0.37171954
H   -3.07477364   8.83320349  -1.26143118
H   -3.94882766   6.89324455  -0.21998574
22
Energy:   -17.6061918578
C    0.09190922   1.05238289   3.62008928
C    0.04038405   1.41398533   2.14093625
C   -0.41027233   0.21055072   1.31431985
C   -0.33872127   0.41451464  -0.15708867
C   -0.94586322  -0.46476455  -1.01694160
N   -1.49264771  -1.19540749  -1.73155385
C   -2.48914582   8.67762668  -0.36773309
S   -3.51159143   8.48486094   1.11420953
C   -4.26393287   6.93196950   0.76283430
O   -5.01385316   6.37226452   1.49960966
H    0.38900207   1.10357969  -0.56245488
H    0.24081947  -0.64104312   1.55774946
H   -1.42276800  -0.08863725   1.60903781
H    1.02925837   1.73740634   1.80749372
H   -0.65162779   2.24715455   1.99940393
H    0.42990621   1.89971770   4.21055630
H   -0.89392667   0.75960282   3.97422491
H    0.77654559   0.22307174   3.78670949
H   -1.65340525   7.96007793  -0.31390177
H   -2.09715971   9.68854318  -0.37171954
H   -3.07477364   8.48837591  -1.26143118
H   -3.94882766   6.54841697  -0.21998574
22
Energy:   -17.6061918578
C    0.09190922   1.05238289   3.62008928
C    0.04038405   1.41398533   2.14093625
C   -0.41027233   0.21055072   1.31431985
C   -0.33872127   0.41451464  -0.15708867
C   -0.94586322  -0.46476455  -1.01694160
N   -1.49264771  -1.19540749  -1.73155385
C   -2.48914582   8.33279910  -0.36773309
S   -3.51159143   8.14003335   1.11420953
C   -4.26393287   6.58714191   0.76283430
O   -5.01385316   6.02743693   1.49960966
H    0.38900207   1.10357969  -0.56245488
H    0.24081947  -0.64104312   1.55774946
H   -1.42276800  -0.08863725   1.60903781
H    1.02925837   1.73740634   1.80749372
H   -0.65162779   2.24715455   1.99940393
H    0.42990621   1.89971770   4.21055630
H   -0.89392667   0.75960282   3.97422491
H    0.77654559   0.22307174   3.78670949
H   -1.65340525   7.61525034  -0.31390177
H   -2.09715971   9.34371559  -0.37171954
H   -3.07477364   8.14354832  -1.26143118
H   -3.94882766   6.20358938  -0.21998574
22
Energy:   -17.6061918578
C    0.09190922   1.05238289   3.62008928
C    0.04038405   1.41398533   2.14093625
C   -0.41027233   0.21055072   1.31431985
C   -0.33872127   0.41451464  -0.15708867
C   -0.94586322  -0.46476455  -1.01694160
N   -1.49264771  -1.19540749  -1.73155385
C   -2.48914582   7.98797151  -0.36773309
S   -3.51159143   7.79520577   1.11420953
C   -4.26393287   6.24231433   0.76283430
O   -5.01385316   5.68260935   1.49960966
H    0.38900207   1.10357969  -0.56245488
H    0.24081947  -0.64104312   1.55774946
H   -1.42276800  -0.08863725   1.60903781
H    1.02925837   1.73740634   1.80749372
H   -0.65162779   2.24715455   1.99940393
H    0.42990621   1.89971770   4.21055630
H   -0.89392667   0.75960282   3.97422491
H    0.77654559   0.22307174   3.78670949
H   -1.65340525   7.27042275  -0.31390177
H   -2.09715971   8.99888800  -0.37171954
H   -3.07477364   7.79872073  -1.26143118
H   -3.94882766   5.85876179  -0.21998574
22
Energy:   -17.6061918578
C    0.09190922   1.05238289   3.62008928
C    0.04038405   1.41398533   2.14093625
C   -0.41027233   0.21055072   1.31431985
C   -0.33872127   0.41451464  -0.15708867
C   -0.94586322  -0.46476455  -1.01694160
N   -1.49264771  -1.19540749  -1.73155385
C   -2.48914582   7.64314392  -0.36773309
S   -3.51159143   7.45037818   1.11420953
C   -4.26393287   5.89748674   0.76283430
O   -5.01385316   5.33778176   1.49960966
H    0.38900207   1.10357969  -0.56245488
H    0.24081947  -0.64104312   1.55774946
H   -1.42276800  -0.08863725   1.60903781
H    1.02925837   1.73740634   1.80749372
H   -0.65162779   2.24715455   1.99940393
H    0.42990621   1.89971770   4.21055630
H   -0.89392667   0.75960282   3.97422491
H    0.77654559   0.22307174   3.78670949
H   -1.65340525   6.92559517  -0.31390177
H   -2.09715971   8.65406042  -0.37171954
H   -3.07477364   7.45389315  -1.26143118
H   -3.94882766   5.51393421  -0.21998574
22
Energy:   -17.6061918578
C    0.09190922   1.05238289   3.62008928
C    0.04038405   1.41398533   2.14093625
C   -0.41027233   0.21055072   1.31431985
C   -0.33872127   0.41451464  -0.15708867
C   -0.94586322  -0.46476455  -1.01694160
N   -1.49264771  -1.19540749  -1.73155385
C   -2.48914582   7.29831634  -0.36773309
S   -3.51159143   7.10555060   1.11420953
C   -4.26393287   5.55265915   0.76283430
O   -5.01385316   4.99295417   1.49960966
H    0.38900207   1.10357969  -0.56245488
H    0.24081947  -0.64104312   1.55774946
H   -1.42276800  -0.08863725   1.60903781
H    1.02925837   1.73740634   1.80749372
H   -0.65162779   2.24715455   1.99940393
H    0.42990621   1.89971770   4.21055630
H   -0.89392667   0.75960282   3.97422491
H    0.77654559   0.22307174   3.78670949
H   -1.65340525   6.58076758  -0.31390177
H   -2.09715971   8.30923283  -0.37171954
H   -3.07477364   7.10906556  -1.26143118
H   -3.94882766   5.16910662  -0.21998574
22
Energy:   -17.6061918578
C    0.09190922   1.05238289   3.62008928
C    0.04038405   1.41398533   2.14093625
C   -0.41027233   0.21055072   1.31431985
C   -0.33872127   0.41451464  -0.15708867
C   -0.94586322  -0.46476455  -1.01694160
N   -1.49264771  -1.19540749  -1.73155385
C   -2.48914582   6.95348875  -0.36773309
S   -3.51159143   6.76072301   1.11420953
C   -4.26393287   5.20783157   0.76283430
O   -5.01385316   4.64812659   1.49960966
H    0.38900207   1.10357969  -0.56245488
H    0.24081947  -0.64104312   1.55774946
H   -1.42276800  -0.08863725   1.60903781
H    1.02925837   1.73740634   1.80749372
H   -0.65162779   2.24715455   1.99940393
H    0.42990621   1.89971770   4.21055630
H   -0.89392667   0.75960282   3.97422491
H    0.77654559   0.22307174   3.78670949
H   -1.65340525   6.23594000  -0.31390177
H   -2.09715971   7.96440524  -0.37171954
H   -3.07477364   6.76423798  -1.26143118
H   -3.94882766   4.82427904  -0.21998574
22
Energy:   -17.6061918578
C    0.09190922   1.05238289   3.62008928
C    0.04038405   1.41398533   2.14093625
C   -0.41027233   0.21055072   1.31431985
C   -0.33872127   0.41451464  -0.15708867
C   -0.94586322  -0.46476455  -1.01694160
N   -1.49264771  -1.19540749  -1.73155385
C   -2.48914582   6.60866117  -0.36773309
S   -3.51159143   6.41589542   1.11420953
C   -4.26393287   4.86300398   0.76283430
O   -5.01385316   4.30329900   1.49960966
H    0.38900207   1.10357969  -0.56245488
H    0.24081947  -0.64104312   1.55774946
H   -1.42276800  -0.08863725   1.60903781
H    1.02925837   1.73740634   1.80749372
H   -0.65162779   2.24715455   1.99940393
H    0.42990621   1.89971770   4.21055630
H   -0.89392667   0.75960282   3.97422491
H    0.77654559   0.22307174   3.78670949
H   -1.65340525   5.89111241  -0.31390177
H   -2.09715971   7.61957766  -0.37171954
H   -3.07477364   6.41941039  -1.26143118
H   -3.94882766   4.47945145  -0.21998574
22
Energy:   -17.6061918578
C    0.09190922   1.05238289   3.62008928
C    0.04038405   1.41398533   2.14093625
C   -0.41027233   0.21055072   1.31431985
C   -0.33872127   0.41451464  -0.15708867
C   -0.94586322  -0.46476455  -1.01694160
N   -1.49264771  -1.19540749  -1.73155385
C   -2.48914582   6.26383358  -0.36773309
S   -3.51159143   6.07106784   1.11420953
C   -4.26393287   4.51817639   0.76283430
O   -5.01385316   3.95847141   1.49960966
H    0.38900207   1.10357969  -0.56245488
H    0.24081947  -0.64104312   1.55774946
H   -1.42276800  -0.08863725   1.60903781
H    1.02925837   1.73740634   1.80749372
H   -0.65162779   2.24715455   1.99940393
H    0.42990621   1.89971770   4.21055630
H   -0.89392667   0.75960282   3.97422491
H    0.77654559   0.22307174   3.78670949
H   -1.65340525   5.54628482  -0.31390177
H   -2.09715971   7.27475007  -0.37171954
H   -3.07477364   6.07458280  -1.26143118
H   -3.94882766   4.13462386  -0.21998574
22
Energy:   -17.6061918578
C    0.09190922   1.05238289   3.62008928
C    0.04038405   1.41398533   2.14093625
C   -0.41027233   0.21055072   1.31431985
C   -0.33872127   0.41451464  -0.15708867
C   -0.94586322  -0.46476455  -1.01694160
N   -1.49264771  -1.19540749  -1.73155385
C   -2.48914582   5.91900599  -0.36773309
S   -3.51159143   5.72624025   1.11420953
C   -4.26393287   4.17334881   0.76283430
O   -5.01385316   3.61364383   1.49960966
H    0.38900207   1.10357969  -0.56245488
H    0.24081947  -0.64104312   1.55774946
H   -1.42276800  -0.08863725   1.60903781
H    1.02925837   1.73740634   1.80749372
H   -0.65162779   2.24715455   1.99940393
H    0.42990621   1.89971770   4.21055630
H   -0.89392667   0.75960282   3.97422491
H    0.77654559   0.22307174   3.78670949
H   -1.65340525   5.20145724  -0.31390177
H   -2.09715971   6.92992249  -0.37171954
H   -3.07477364   5.72975522  -1.26143118
H   -3.94882766   3.78979628  -0.21998574
22
Energy:   -17.6061918578
C    0.09190922   1.05238289   3.62008928
C    0.04038405   1.41398533   2.14093625
C   -0.41027233   0.21055072   1.31431985
C   -0.33872127   0.41451464  -0.15708867
C   -0.94586322  -0.46476455  -1.01694160
N   -1.49264771  -1.19540749  -1.73155385
C   -2.48914582   5.57417841  -0.36773309
S   -3.51159143   5.38141267   1.11420953
C   -4.26393287   3.82852122   0.76283430
O   -5.01385316   3.26881624   1.49960966
H    0.38900207   1.10357969  -0.56245488
H    0.24081947  -0.64104312   1.55774946
H   -1.42276800  -0.08863725   1.60903781
H    1.02925837   1.73740634   1.80749372
H   -0.65162779   2.24715455   1.99940393
H    0.42990621   1.89971770   4.21055630
H   -0.89392667   0.75960282   3.97422491
H    0.77654559   0.22307174   3.78670949
H   -1.65340525   4.85662965  -0.31390177
H   -2.09715971   6.58509490  -0.37171954
H   -3.07477364   5.38492763  -1.26143118
H   -3.94882766   3.44496869  -0.21998574
22
Energy:   -17.6061918578
C    0.09190922   1.05238289   3.62008928
C    0.04038405   1.41398533   2.14093625
C   -0.41027233   0.21055072   1.31431985
C   -0.33872127   0.41451464  -0.15708867
C   -0.94586322  -0.46476455  -1.01694160
N   -1.49264771  -1.19540749  -1.73155385
C   -2.48914582   5.22935082  -0.36773309
S   -3.51159143   5.03658508   1.11420953
C   -4.26393287   3.48369364   0.76283430
O   -5.01385316   2.92398866   1.49960966
H    0.38900207   1.10357969  -0.56245488
H    0.24081947  -0.64104312   1.55774946
H   -1.42276800  -0.08863725   1.60903781
H    1.02925837   1.73740634   1.80749372
H   -0.65162779   2.24715455   1.99940393
H    0.42990621   1.89971770   4.21055630
H   -0.89392667   0.75960282   3.97422491
H    0.77654559   0.22307174   3.78670949
H   -1.65340525   4.51180206  -0.31390177
H   -2.09715971   6.24026731  -0.37171954
H   -3.07477364   5.04010004  -1.26143118
H   -3.94882766   3.10014111  -0.21998574
22
Energy:   -17.6061918578
C    0.09190922   1.05238289   3.62008928
C    0.04038405   1.41398533   2.14093625
C   -0.41027233   0.21055072   1.31431985
C   -0.33872127   0.41451464  -0.15708867
C   -0.94586322  -0.46476455  -1.01694160
N   -1.49264771  -1.19540749  -1.73155385
C   -2.48914582   4.88452324  -0.36773309
S   -3.51159143   4.69175749   1.11420953
C   -4.26393287   3.13886605   0.76283430
O   -5.01385316   2.57916107   1.49960966
H    0.38900207   1.10357969  -0.56245488
H    0.24081947  -0.64104312   1.55774946
H   -1.42276800  -0.08863725   1.60903781
H    1.02925837   1.73740634   1.80749372
H   -0.65162779   2.24715455   1.99940393
H    0.42990621   1.89971770   4.21055630
H   -0.89392667   0.75960282   3.97422491
H    0.77654559   0.22307174   3.78670949
H   -1.65340525   4.16697448  -0.31390177
H   -2.09715971   5.89543973  -0.37171954
H   -3.07477364   4.69527246  -1.26143118
H   -3.94882766   2.75531352  -0.21998574
22
Energy:   -17.6061918578
C    0.09190922   1.05238289   3.62008928
C    0.04038405   1.41398533   2.14093625
C   -0.41027233   0.21055072   1.31431985
C   -0.33872127   0.41451464  -0.15708867
C   -0.94586322  -0.46476455  -1.01694160
N   -1.49264771  -1.19540749  -1.73155385
C   -2.48914582   4.53969565  -0.36773309
S   -3.51159143   4.34692991   1.11420953
C   -4.26393287   2.79403846   0.76283430
O   -5.01385316   2.23433348   1.49960966
H    0.38900207   1.10357969  -0.56245488
H    0.24081947  -0.64104312   1.55774946
H   -1.42276800  -0.08863725   1.60903781
H    1.02925837   1.73740634   1.80749372
H   -0.65162779   2.24715455   1.99940393
H    0.42990621   1.89971770   4.21055630
H   -0.89392667   0.75960282   3.97422491
H    0.77654559   0.22307174   3.78670949
H   -1.65340525   3.82214689  -0.31390177
H   -2.09715971   5.55061214  -0.37171954
H   -3.07477364   4.35044487  -1.26143118
H   -3.94882766   2.41048593  -0.21998574
22
Energy:   -17.6061918578
C    0.09190922   1.05238289   3.62008928
C    0.04038405   1.41398533   2.14093625
C   -0.41027233   0.21055072   1.31431985
C   -0.33872127   0.41451464  -0.15708867
C   -0.94586322  -0.46476455  -1.01694160
N   -1.49264771  -1.19540749  -1.73155385
C   -2.48914582   4.19486806  -0.36773309
S   -3.51159143   4.00210232   1.11420953
C   -4.26393287   2.44921088   0.76283430
O   -5.01385316   1.88950590   1.49960966
H    0.38900207   1.10357969  -0.56245488
H    0.24081947  -0.64104312   1.55774946
H   -1.42276800  -0.08863725   1.60903781
H    1.02925837   1.73740634   1.80749372
H   -0.65162779   2.24715455   1.99940393
H    0.42990621   1.89971770   4.21055630
H   -0.89392667   0.75960282   3.97422491
H    0.77654559   0.22307174   3.78670949
H   -1.65340525   3.47731931  -0.31390177
H   -2.09715971   5.20578456  -0.37171954
H   -3.07477364   4.00561729  -1.26143118
H   -3.94882766   2.06565835  -0.21998574
22
Energy:   -17.6061918578
C    0.09190922   1.05238289   3.62008928
C    0.04038405   1.41398533   2.14093625
C   -0.41027233   0.21055072   1.31431985
C   -0.33872127   0.41451464  -0.15708867
C   -0.94586322  -0.46476455  -1.01694160
N   -1.49264771  -1.19540749  -1.73155385
C   -2.48914582   3.85004048  -0.36773309
S   -3.51159143   3.65727473   1.11420953
C   -4.26393287   2.10438329   0.76283430
O   -5.01385316   1.54467831   1.49960966
H    0.38900207   1.10357969  -0.56245488
H    0.24081947  -0.64104312   1.55774946
H   -1.42276800  -0.08863725   1.60903781
H    1.02925837   1.73740634   1.80749372
H   -0.65162779   2.24715455   1.99940393
H    0.42990621   1.89971770   4.21055630
H   -0.89392667   0.75960282   3.97422491
H    0.77654559   0.22307174   3.78670949
H   -1.65340525   3.13249172  -0.31390177
H   -2.09715971   4.86095697  -0.37171954
H   -3.07477364   3.66078970  -1.26143118
H   -3.94882766   1.72083076  -0.21998574
22
Energy:   -17.6061918578
C    0.09190922   1.05238289   3.62008928
C    0.04038405   1.41398533   2.14093625
C   -0.41027233   0.21055072   1.31431985
C   -0.33872127   0.41451464  -0.15708867
C   -0.94586322  -0.46476455  -1.01694160
N   -1.49264771  -1.19540749  -1.73155385
C   -2.48914582   3.50521289  -0.36773309
S   -3.51159143   3.31244715   1.11420953
C   -4.26393287   1.75955570   0.76283430
O   -5.01385316   1.19985072   1.49960966
H    0.38900207   1.10357969  -0.56245488
H    0.24081947  -0.64104312   1.55774946
H   -1.42276800  -0.08863725   1.60903781
H    1.02925837   1.73740634   1.80749372
H   -0.65162779   2.24715455   1.99940393
H    0.42990621   1.89971770   4.21055630
H   -0.89392667   0.75960282   3.97422491
H    0.77654559   0.22307174   3.78670949
H   -1.65340525   2.78766413  -0.31390177
H   -2.09715971   4.51612938  -0.37171954
H   -3.07477364   3.31596211  -1.26143118
H   -3.94882766   1.37600317  -0.21998574
22
Energy:   -17.6061918578
C    0.09190922   1.05238289   3.62008928
C    0.04038405   1.41398533   2.14093625
C   -0.41027233   0.21055072   1.31431985
C   -0.33872127   0.41451464  -0.15708867
C   -0.94586322  -0.46476455  -1.01694160
N   -1.49264771  -1.19540749  -1.73155385
C   -2.48914582   3.16038530  -0.36773309
S   -3.51159143   2.96761956   1.11420953
C   -4.26393287   1.41472812   0.76283430
O   -5.01385316   0.85502314   1.49960966
H    0.38900207   1.10357969  -0.56245488
H    0.24081947  -0.64104312   1.55774946
H   -1.42276800  -0.08863725   1.60903781
H    1.02925837   1.73740634   1.80749372
H   -0.65162779   2.24715455   1.99940393
H    0.42990621   1.89971770   4.21055630
H   -0.89392667   0.75960282   3.97422491
H    0.77654559   0.22307174   3.78670949
H   -1.65340525   2.44283655  -0.31390177
H   -2.09715971   4.17130180  -0.37171954
H   -3.07477364   2.97113453  -1.26143118
H   -3.94882766   1.03117559  -0.21998574
22
Energy:   -17.6061918578
C    0.09190922   1.05238289   3.62008928
C    0.04038405   1.41398533   2.14093625
C   -0.41027233   0.21055072   1.31431985
C   -0.33872127   0.41451464  -0.15708867
C   -0.94586322  -0.46476455  -1.01694160
N   -1.49264771  -1.19540749  -1.73155385
C   -2.48914582   2.81555772  -0.36773309
S   -3.51159143   2.62279198   1.11420953
C   -4.26393287   1.06990053   0.76283430
O   -5.01385316   0.51019555   1.49960966
H    0.38900207   1.10357969  -0.56245488
H    0.24081947  -0.64104312   1.55774946
H   -1.42276800  -0.08863725   1.60903781
H    1.02925837   1.73740634   1.80749372
H   -0.65162779   2.24715455   1.99940393
H    0.42990621   1.89971770   4.21055630
H   -0.89392667   0.75960282   3.97422491
H    0.77654559   0.22307174   3.78670949
H   -1.65340525   2.09800896  -0.31390177
H   -2.09715971   3.82647421  -0.37171954
H   -3.07477364   2.62630694  -1.26143118
H   -3.94882766   0.68634800  -0.21998574
22
Energy:   -17.6061918578
C    0.09190922   1.05238289   3.62008928
C    0.04038405   1.41398533   2.14093625
C   -0.41027233   0.21055072   1.31431985
C   -0.33872127   0.41451464  -0.15708867
C   -0.94586322  -0.46476455  -1.01694160
N   -1.49264771  -1.19540749  -1.73155385
C   -2.48914582   2.47073013  -0.36773309
S   -3.51159143   2.27796439   1.11420953
C   -4.26393287   0.72507295   0.76283430
O   -5.01385316   0.16536797   1.49960966
H    0.38900207   1.10357969  -0.56245488
H    0.24081947  -0.64104312   1.55774946
H   -1.42276800  -0.08863725   1.60903781
H    1.02925837   1.73740634   1.80749372
H   -0.65162779   2.24715455   1.99940393
H    0.42990621   1.89971770   4.21055630
H   -0.89392667   0.75960282   3.97422491
H    0.77654559   0.22307174   3.78670949
H   -1.65340525   1.75318137  -0.31390177
H   -2.09715971   3.48164662  -0.37171954
H   -3.07477364   2.28147936  -1.26143118
H   -3.94882766   0.34152042  -0.21998574
22
Energy:   -17.6061537935
C    0.09187059   1.05226517   3.62007323
C    0.04016301   1.41432508   2.14102975
C   -0.41087964   0.21128239   1.31405683
C   -0.34037127   0.41597617  -0.15738774
C   -0.94645490  -0.46431997  -1.01695346
N   -1.49221089  -1.19615654  -1.73129722
C   -2.48829604   2.46992577  -0.36739901
S   -3.51109378   2.27771708   1.11422481
C   -4.26393881   0.72505109   0.76277469
O   -5.01398817   0.16556637   1.49956735
H    0.38786924   1.10449760  -0.56279761
H    0.24068993  -0.64027442   1.55622958
H   -1.42305369  -0.08830547   1.60946934
H    1.02906864   1.73756912   1.80751699
H   -0.65162666   2.24775757   1.99994864
H    0.43003118   1.89942024   4.21070959
H   -0.89393400   0.75948894   3.97430423
H    0.77645297   0.22284958   3.78637935
H   -1.65259667   1.75201671  -0.31302201
H   -2.09585249   3.48065546  -0.37165430
H   -3.07349075   2.28030922  -1.26130158
H   -3.94905071   0.34146108  -0.22010584
22
Energy:   -17.6061151845
C    0.09183246   1.05214900   3.62006007
C    0.03994217   1.41465840   2.14112391
C   -0.41149177   0.21201299   1.31379836
C   -0.34202016   0.41746374  -0.15767089
C   -0.94712145  -0.46396017  -1.01705409
N   -1.49171260  -1.19682984  -1.73096747
C   -2.48745009   2.46912401  -0.36706706
S   -3.51059306   2.27746787   1.11424023
C   -4.26393854   0.72502927   0.76270910
O   -5.01411987   0.16576093   1.49952895
H    0.38675164   1.10539879  -0.56312950
H    0.24056157  -0.63950582   1.55469046
H   -1.42333974  -0.08798312   1.60990879
H    1.02887964   1.73772094   1.80753910
H   -0.65162110   2.24835766   2.00049208
H    0.43015207   1.89912974   4.21086088
H   -0.89394114   0.75937678   3.97438814
H    0.77636316   0.22263262   3.78605804
H   -1.65179046   1.75085748  -0.31215203
H   -2.09455116   3.47966950  -0.37158946
H   -3.07221397   2.27914290  -1.26117226
H   -3.94927346   0.34140159  -0.22022765
22
Energy:   -17.6060759500
C    0.09179376   1.05203525   3.62004952
C    0.03972216   1.41498735   2.14121923
C   -0.41210919   0.21274062   1.31353688
C   -0.34369860   0.41894866  -0.15796613
C   -0.94772839  -0.46349579  -1.01706354
N   -1.49126372  -1.19757798  -1.73071172
C   -2.48660844   2.46832782  -0.36673700
S   -3.51008691   2.27721640   1.11425626
C   -4.26393694   0.72500466   0.76264757
O   -5.01424341   0.16595483   1.49948913
H    0.38565157   1.10628207  -0.56345238
H    0.24043669  -0.63873640   1.55312951
H   -1.42362406  -0.08766830   1.61035753
H    1.02869220   1.73786319   1.80756124
H   -0.65161176   2.24895636   2.00103456
H    0.43026960   1.89884673   4.21100907
H   -0.89394836   0.75926619   3.97447364
H    0.77627421   0.22242189   3.78574571
H   -1.65097884   1.74969900  -0.31129000
H   -2.09325368   3.47868615  -0.37152673
H   -3.07094352   2.27797900  -1.26104313
H   -3.94949501   0.34134175  -0.22035156
22
Energy:   -17.6060361491
C    0.09175449   1.05192393   3.62004158
C    0.03950167   1.41531143   2.14131553
C   -0.41273184   0.21346648   1.31327934
C   -0.34537616   0.42045823  -0.15824536
C   -0.94841222  -0.46311968  -1.01716473
N   -1.49075142  -1.19824533  -1.73037828
C   -2.48577188   2.46753581  -0.36641003
S   -3.50957729   2.27696373   1.11427302
C   -4.26393056   0.72497903   0.76258227
O   -5.01436532   0.16614577   1.49945166
H    0.38456592   1.10714725  -0.56376562
H    0.24031340  -0.63796638   1.55154992
H   -1.42390855  -0.08736361   1.61081489
H    1.02850641   1.73799431   1.80758181
H   -0.65159858   2.24955213   2.00157448
H    0.43038377   1.89857121   4.21115417
H   -0.89395578   0.75915662   3.97456314
H    0.77618748   0.22221635   3.78544093
H   -1.65016868   1.74854578  -0.31043817
H   -2.09196119   3.47770784  -0.37146479
H   -3.06968090   2.27681769  -1.26091507
H   -3.94971606   0.34128105  -0.22047649
22
Energy:   -17.6059956980
C    0.09171424   1.05181434   3.62003565
C    0.03928112   1.41563132   2.14141341
C   -0.41335938   0.21419007   1.31301939
C   -0.34708396   0.42196463  -0.15853557
C   -0.94903382  -0.46263552  -1.01717047
N   -1.49028949  -1.19899187  -1.73012154
C   -2.48494073   2.46674814  -0.36608444
S   -3.50906354   2.27670828   1.11429021
C   -4.26392183   0.72495097   0.76251822
O   -5.01448018   0.16633481   1.49941327
H    0.38349838   1.10799450  -0.56406856
H    0.24019189  -0.63719677   1.54994771
H   -1.42419260  -0.08706697   1.61128137
H    1.02832176   1.73811516   1.80760183
H   -0.65158204   2.25014582   2.00211284
H    0.43049257   1.89830212   4.21129708
H   -0.89396269   0.75904860   3.97465552
H    0.77610268   0.22201618   3.78514539
H   -1.64935401   1.74739348  -0.30959387
H   -2.09067284   3.47673230  -0.37140328
H   -3.06842312   2.27565862  -1.26078632
H   -3.94993593   0.34122002  -0.22060352
22
Energy:   -17.6059546582
C    0.09167390   1.05170631   3.62003131
C    0.03906148   1.41594530   2.14151085
C   -0.41399214   0.21491189   1.31276339
C   -0.34879008   0.42349707  -0.15880858
C   -0.94973533  -0.46224378  -1.01727282
N   -1.48976170  -1.19965344  -1.72978353
C   -2.48411320   2.46596447  -0.36576108
S   -3.50854673   2.27645093   1.11430753
C   -4.26390822   0.72492275   0.76245270
O   -5.01459170   0.16652211   1.49937801
H    0.38244784   1.10882261  -0.56436071
H    0.24007255  -0.63642656   1.54832816
H   -1.42447612  -0.08677994   1.61175535
H    1.02813974   1.73822558   1.80762215
H   -0.65156106   2.25073658   2.00264993
H    0.43059889   1.89804036   4.21143649
H   -0.89397017   0.75894301   3.97475050
H    0.77602052   0.22182189   3.78485800
H   -1.64854170   1.74624661  -0.30875936
H   -2.08939038   3.47576197  -0.37134215
H   -3.06717384   2.27450372  -1.26065832
H   -3.95015400   0.34115865  -0.22073137
22
Energy:   -17.6059129431
C    0.09163340   1.05160139   3.62003018
C    0.03884237   1.41625509   2.14161115
C   -0.41462979   0.21563144   1.31250497
C   -0.35052614   0.42502616  -0.15909428
C   -0.95037118  -0.46173915  -1.01727427
N   -1.48928690  -1.20039768  -1.72952648
C   -2.48329234   2.46518671  -0.36544007
S   -3.50802556   2.27619219   1.11432519
C   -4.26389356   0.72489158   0.76238825
O   -5.01469676   0.16670753   1.49934055
H    0.38141352   1.10963228  -0.56464404
H    0.23995409  -0.63565659   1.54668640
H   -1.42475969  -0.08650009   1.61223946
H    1.02795720   1.73832660   1.80764035
H   -0.65153604   2.25132370   2.00318515
H    0.43070115   1.89778555   4.21157390
H   -0.89397786   0.75883844   3.97484948
H    0.77593988   0.22163227   3.78457927
H   -1.64772478   1.74509910  -0.30793399
H   -2.08811225   3.47479511  -0.37128213
H   -3.06593108   2.27335192  -1.26053120
H   -3.95037198   0.34109572  -0.22086083
22
Energy:   -17.6058706156
C    0.09159151   1.05149751   3.62003047
C    0.03862309   1.41655984   2.14171074
C   -0.41527109   0.21634748   1.31224977
C   -0.35226010   0.42658199  -0.15936217
C   -0.95108979  -0.46133180  -1.01737648
N   -1.48874192  -1.20105226  -1.72918314
C   -2.48247640   2.46441242  -0.36512146
S   -3.50750331   2.27593258   1.11434312
C   -4.26387443   0.72485956   0.76232173
O   -5.01479848   0.16689120   1.49930622
H    0.38039787   1.11042193  -0.56491501
H    0.23983771  -0.63488688   1.54502500
H   -1.42504184  -0.08623002   1.61273066
H    1.02777820   1.73841702   1.80765845
H   -0.65150776   2.25190789   2.00371653
H    0.43079964   1.89753754   4.21170761
H   -0.89398433   0.75873596   3.97495023
H    0.77586099   0.22144871   3.78430909
H   -1.64690871   1.74395894  -0.30711832
H   -2.08684042   3.47383276  -0.37122309
H   -3.06469604   2.27220358  -1.26040285
H   -3.95058837   0.34103315  -0.22099181
22
Energy:   -17.6058275872
C    0.09155053   1.05139588   3.62003424
C    0.03840374   1.41686039   2.14181189
C   -0.41591797   0.21706282   1.31199247
C   -0.35402635   0.42813117  -0.15964403
C   -0.95173931  -0.46080669  -1.01737236
N   -1.48825307  -1.20179421  -1.72892320
C   -2.48166694   2.46364335  -0.36480451
S   -3.50697602   2.27567004   1.11436106
C   -4.26385273   0.72482649   0.76225637
O   -5.01489554   0.16707333   1.49927051
H    0.37940081   1.11119279  -0.56517669
H    0.23972340  -0.63411742   1.54334396
H   -1.42532224  -0.08596746   1.61323116
H    1.02759885   1.73849734   1.80767512
H   -0.65147594   2.25248930   2.00424704
H    0.43089405   1.89729649   4.21183933
H   -0.89399141   0.75863381   3.97505438
H    0.77578451   0.22126965   3.78404716
H   -1.64608863   1.74281815  -0.30631306
H   -2.08557281   3.47287475  -0.37116287
H   -3.06346792   2.27105767  -1.26027597
H   -3.95080318   0.34096885  -0.22112351
22
Energy:   -17.6057839155
C    0.09150929   1.05129651   3.62003892
C    0.03818590   1.41715503   2.14191390
C   -0.41656880   0.21777482   1.31174008
C   -0.35578627   0.42971092  -0.15990535
C   -0.95247501  -0.46038372  -1.01747443
N   -1.48769230  -1.20244319  -1.72857700
C   -2.48086128   2.46287898  -0.36449048
S   -3.50644744   2.27540801   1.11437918
C   -4.26382786   0.72479205   0.76218875
O   -5.01498836   0.16725354   1.49923752
H    0.37842143   1.11194295  -0.56542789
H    0.23961026  -0.63334805   1.54164370
H   -1.42560301  -0.08571435   1.61373959
H    1.02742177   1.73856863   1.80769072
H   -0.65144067   2.25306709   2.00477439
H    0.43098600   1.89706275   4.21196754
H   -0.89399924   0.75853478   3.97516045
H    0.77571008   0.22109648   3.78379209
H   -1.64526921   1.74168401  -0.30551682
H   -2.08431191   3.47192055  -0.37110422
H   -3.06224789   2.26991660  -1.26014925
H   -3.95101680   0.34090421  -0.22125732
22
Energy:   -17.6057395336
C    0.09146765   1.05119886   3.62004689
C    0.03796829   1.41744532   2.14201578
C   -0.41722511   0.21848455   1.31148400
C   -0.35757910   0.43128192  -0.16018112
C   -0.95313815  -0.45983604  -1.01746552
N   -1.48718909  -1.20318301  -1.72831589
C   -2.48006301   2.46211999  -0.36417769
S   -3.50591621   2.27514339   1.11439685
C   -4.26380023   0.72475587   0.76212298
O   -5.01507682   0.16743237   1.49920485
H    0.37746124   1.11267431  -0.56566853
H    0.23949860  -0.63257892   1.53992251
H   -1.42588244  -0.08546945   1.61425671
H    1.02724625   1.73863034   1.80770635
H   -0.65140266   2.25364072   2.00529970
H    0.43107437   1.89683511   4.21209275
H   -0.89400590   0.75843575   3.97526909
H    0.77563776   0.22092798   3.78354696
H   -1.64444559   1.74054853  -0.30473031
H   -2.08305631   3.47097155  -0.37104467
H   -3.06103527   2.26877882  -1.26002299
H   -3.95122952   0.34083940  -0.22139154
22
Energy:   -17.6056944680
C    0.09142486   1.05110364   3.62005619
C    0.03775129   1.41772987   2.14211892
C   -0.41788408   0.21919147   1.31123301
C   -0.35936668   0.43288436  -0.16043664
C   -0.95389076  -0.45939816  -1.01756677
N   -1.48661013  -1.20382430  -1.72796246
C   -2.47926965   2.46136447  -0.36386731
S   -3.50538240   2.27487772   1.11441566
C   -4.26376962   0.72471902   0.76205428
O   -5.01516133   0.16760912   1.49917191
H    0.37651909   1.11338357  -0.56589730
H    0.23938831  -0.63181058   1.53818279
H   -1.42616042  -0.08523223   1.61478015
H    1.02707169   1.73868249   1.80772073
H   -0.65136091   2.25421055   2.00582015
H    0.43115848   1.89661513   4.21221526
H   -0.89401331   0.75833984   3.97537964
H    0.77556659   0.22076554   3.78330910
H   -1.64362390   1.73942127  -0.30395378
H   -2.08180790   3.47002724  -0.37098568
H   -3.05983097   2.26764450  -1.25989679
H   -3.95144085   0.34077356  -0.22152719
22
Energy:   -17.6056486751
C    0.09138328   1.05101050   3.62006727
C    0.03753534   1.41801145   2.14222313
C   -0.41854794   0.21989612   1.31097961
C   -0.36118498   0.43447842  -0.16070684
C   -0.95456716  -0.45882932  -1.01755168
N   -1.48609257  -1.20456199  -1.72770017
C   -2.47848404   2.46061573  -0.36355956
S   -3.50484591   2.27461155   1.11443325
C   -4.26373755   0.72467990   0.76198723
O   -5.01524108   0.16778519   1.49913989
H    0.37559663   1.11407318  -0.56611651
H    0.23927848  -0.63104286   1.53642495
H   -1.42643817  -0.08500445   1.61531280
H    1.02689790   1.73872577   1.80773316
H   -0.65131732   2.25477639   2.00633897
H    0.43124049   1.89640108   4.21233565
H   -0.89401954   0.75824392   3.97549276
H    0.77549873   0.22060742   3.78307907
H   -1.64279621   1.73829234  -0.30318780
H   -2.08056413   3.46908656  -0.37092611
H   -3.05863386   2.26651485  -1.25977115
H   -3.95165040   0.34070738  -0.22166366
22
Energy:   -17.6056021626
C    0.09134090   1.05091840   3.62008106
C    0.03731919   1.41828589   2.14232741
C   -0.41921486   0.22059726   1.31073071
C   -0.36299874   0.43610338  -0.16095568
C   -0.95533538  -0.45837600  -1.01765192
N   -1.48549560  -1.20519490  -1.72734022
C   -2.47770335   2.45987047  -0.36325420
S   -3.50430943   2.27434538   1.11445083
C   -4.26370209   0.72464080   0.76191784
O   -5.01531789   0.16795882   1.49911040
H    0.37469153   1.11474224  -0.56632355
H    0.23917012  -0.63027538   1.53464619
H   -1.42671406  -0.08478367   1.61585236
H    1.02672657   1.73875931   1.80774522
H   -0.65126979   2.25533773   2.00685362
H    0.43131873   1.89619381   4.21245235
H   -0.89402653   0.75815112   3.97560780
H    0.77543151   0.22045414   3.78285811
H   -1.64197090   1.73716884  -0.30243161
H   -2.07932804   3.46815143  -0.37086610
H   -3.05744636   2.26538814  -1.25964575
H   -3.95185886   0.34064033  -0.22179985
22
Energy:   -17.6055549066
C    0.09129866   1.05082924   3.62009634
C    0.03710458   1.41855651   2.14243174
C   -0.41988638   0.22129596   1.31047770
C   -0.36484214   0.43771908  -0.16121893
C   -0.95602463  -0.45778528  -1.01763008
N   -1.48496157  -1.20592855  -1.72707538
C   -2.47693053   2.45913146  -0.36294910
S   -3.50376988   2.27407729   1.11446855
C   -4.26366477   0.72460014   0.76185070
O   -5.01538981   0.16813230   1.49907944
H    0.37380747   1.11538853  -0.56652165
H    0.23906301  -0.62950922   1.53285127
H   -1.42698942  -0.08457249   1.61639942
H    1.02655682   1.73878538   1.80775653
H   -0.65122052   2.25589422   2.00736434
H    0.43139380   1.89599334   4.21256663
H   -0.89403311   0.75805902   3.97572343
H    0.77536722   0.22030659   3.78264360
H   -1.64114045   1.73604593  -0.30168634
H   -2.07809895   3.46722028  -0.37080596
H   -3.05626677   2.26426558  -1.25951981
H   -3.95206564   0.34057208  -0.22193916
22
Energy:   -17.6055068933
C    0.09125674   1.05074235   3.62011382
C    0.03689098   1.41882207   2.14253793
C   -0.42056174   0.22199219   1.31023190
C   -0.36668199   0.43936500  -0.16146269
C   -0.95681025  -0.45731618  -1.01772849
N   -1.48434471  -1.20655256  -1.72670744
C   -2.47616282   2.45839662  -0.36264708
S   -3.50322963   2.27380974   1.11448517
C   -4.26362356   0.72455862   0.76178022
O   -5.01545899   0.16830403   1.49905032
H    0.37294136   1.11601426  -0.56670629
H    0.23895668  -0.62874384   1.53103654
H   -1.42726341  -0.08436743   1.61695440
H    1.02638785   1.73880258   1.80776589
H   -0.65116803   2.25644569   2.00787201
H    0.43146588   1.89579896   4.21267920
H   -0.89403919   0.75796847   3.97584195
H    0.77530464   0.22016300   3.78243843
H   -1.64031000   1.73492810  -0.30095041
H   -2.07687607   3.46629450  -0.37074451
H   -3.05509567   2.26314718  -1.25939462
H   -3.95227093   0.34050365  -0.22207759
22
Energy:   -17.6054581268
C    0.09121452   1.05065561   3.62013300
C    0.03667829   1.41908172   2.14264368
C   -0.42123972   0.22268494   1.30998184
C   -0.36854986   0.44100445  -0.16171849
C   -0.95751127  -0.45670447  -1.01769960
N   -1.48379672  -1.20728478  -1.72644201
C   -2.47540326   2.45766786  -0.36234829
S   -3.50268829   2.27354132   1.11450207
C   -4.26358158   0.72451641   0.76171171
O   -5.01552291   0.16847422   1.49902111
H    0.37209610   1.11661792  -0.56688270
H    0.23885010  -0.62797960   1.52920480
H   -1.42753598  -0.08417215   1.61751648
H    1.02622115   1.73881073   1.80777418
H   -0.65111309   2.25699283   2.00837465
H    0.43153508   1.89561120   4.21278766
H   -0.89404554   0.75788018   3.97596137
H    0.77524500   0.22002514   3.78223971
H   -1.63947589   1.73381104  -0.30022627
H   -2.07566068   3.46537357  -0.37068192
H   -3.05393464   2.26203466  -1.25926944
H   -3.95247443   0.34043489  -0.22221685
22
Energy:   -17.6054085468
C    0.09117333   1.05057166   3.62015327
C    0.03646624   1.41933771   2.14274990
C   -0.42192165   0.22337436   1.30973671
C   -0.37041459   0.44267342  -0.16195540
C   -0.95831298  -0.45621907  -1.01779599
N   -1.48316015  -1.20789919  -1.72606678
C   -2.47464892   2.45694274  -0.36205020
S   -3.50214647   2.27327204   1.11451796
C   -4.26353661   0.72447352   0.76164027
O   -5.01558515   0.16864353   1.49899347
H    0.37126930   1.11720016  -0.56704665
H    0.23874469  -0.62721545   1.52735382
H   -1.42780688  -0.08398316   1.61808478
H    1.02605532   1.73881088   1.80778282
H   -0.65105582   2.25753512   2.00887463
H    0.43160200   1.89543006   4.21289330
H   -0.89405089   0.75779258   3.97608268
H    0.77518648   0.21989125   3.78204905
H   -1.63864200   1.73269768  -0.29951137
H   -2.07445141   3.46445645  -0.37061962
H   -3.05278124   2.26092404  -1.25914463
H   -3.95267744   0.34036527  -0.22235712
22
Energy:   -17.6053582158
C    0.09113157   1.05049014   3.62017615
C    0.03625660   1.41958762   2.14285656
C   -0.42260520   0.22406099   1.30948921
C   -0.37230558   0.44433348  -0.16220438
C   -0.95902497  -0.45558497  -1.01775887
N   -1.48259611  -1.20862805  -1.72579939
C   -2.47390323   2.45622458  -0.36175434
S   -3.50160353   2.27300398   1.11453335
C   -4.26349068   0.72442923   0.76157149
O   -5.01564193   0.16881269   1.49896564
H    0.37046321   1.11775979  -0.56719997
H    0.23864001  -0.62645384   1.52548849
H   -1.42807613  -0.08380255   1.61866008
H    1.02589179   1.73880409   1.80778960
H   -0.65099732   2.25807101   2.00936781
H    0.43166553   1.89525432   4.21299663
H   -0.89405710   0.75770724   3.97620361
H    0.77513019   0.21976255   3.78186595
H   -1.63780316   1.73158559  -0.29880808
H   -2.07325103   3.46354522  -0.37055477
H   -3.05163750   2.25982000  -1.25901925
H   -3.95287776   0.34029513  -0.22249863
22
Energy:   -17.6053070194
C    0.09108953   1.05041087   3.62019994
C    0.03604629   1.41983335   2.14296350
C   -0.42329360   0.22474445   1.30924703
C   -0.37419330   0.44602602  -0.16243297
C   -0.95984489  -0.45508518  -1.01785463
N   -1.48193753  -1.20923164  -1.72541479
C   -2.47316138   2.45550902  -0.36146059
S   -3.50106010   2.27273506   1.11454772
C   -4.26344064   0.72438549   0.76149927
O   -5.01569636   0.16897941   1.49893905
H    0.36967499   1.11829802  -0.56734212
H    0.23853501  -0.62569215   1.52360307
H   -1.42834393  -0.08362962   1.61924169
H    1.02572944   1.73878912   1.80779503
H   -0.65093578   2.25860256   2.00985723
H    0.43172677   1.89508520   4.21309714
H   -0.89406321   0.75762277   3.97632683
H    0.77507572   0.21963836   3.78168980
H   -1.63696333   1.73047687  -0.29811614
H   -2.07205705   3.46263795  -0.37048851
H   -3.05050248   2.25871872  -1.25889452
H   -3.95307701   0.34022413  -0.22263986
22
Energy:   -17.6052550707
C    0.09104849   1.05033230   3.62022560
C    0.03583820   1.42007368   2.14307019
C   -0.42398294   0.22542357   1.30900217
C   -0.37610610   0.44770722  -0.16267495
C   -0.96056813  -0.45442853  -1.01780758
N   -1.48135851  -1.20995629  -1.72514573
C   -2.47243055   2.45480075  -0.36116952
S   -3.50051794   2.27246770   1.11456113
C   -4.26339004   0.72433965   0.76142912
O   -5.01574602   0.16914544   1.49891339
H    0.36890799   1.11881276  -0.56747465
H    0.23843080  -0.62493423   1.52170637
H   -1.42860956  -0.08346385   1.61982851
H    1.02556779   1.73876684   1.80780013
H   -0.65087313   2.25912718   2.01034223
H    0.43178503   1.89492218   4.21319593
H   -0.89406869   0.75754038   3.97645055
H    0.77502327   0.21951796   3.78152130
H   -1.63612034   1.72936978  -0.29743499
H   -2.07087256   3.46173658  -0.37042098
H   -3.04937752   2.25762332  -1.25876980
H   -3.95327316   0.34015331  -0.22278173
22
Energy:   -17.6052022011
C    0.09100778   1.05025597   3.62025346
C    0.03563143   1.42030880   2.14317704
C   -0.42467579   0.22610214   1.30876204
C   -0.37801811   0.44942279  -0.16289540
C   -0.96140347  -0.45391399  -1.01790163
N   -1.48067881  -1.21054890  -1.72475136
C   -2.47170387   2.45409525  -0.36087888
S   -3.49997421   2.27219861   1.11457381
C   -4.26333695   0.72429400   0.76135704
O   -5.01579290   0.16931183   1.49888878
H    0.36816033   1.11930593  -0.56759513
H    0.23832722  -0.62417429   1.51978838
H   -1.42887423  -0.08330490   1.62042265
H    1.02540862   1.73873692   1.80780405
H   -0.65080843   2.25964678   2.01082161
H    0.43184149   1.89476490   4.21329089
H   -0.89407396   0.75745939   3.97657417
H    0.77497283   0.21940137   3.78136045
H   -1.63527510   1.72826448  -0.29676422
H   -2.06969448   3.46083918  -0.37035204
H   -3.04826177   2.25653156  -1.25864472
H   -3.95346882   0.34008163  -0.22292461
22
Energy:   -17.6051485814
C    0.09096769   1.05018174   3.62028182
C    0.03542638   1.42053939   2.14328463
C   -0.42537003   0.22677357   1.30851940
C   -0.37995273   0.45112514  -0.16313038
C   -0.96213758  -0.45323410  -1.01784407
N   -1.48008391  -1.21126950  -1.72448103
C   -2.47098691   2.45339757  -0.36059074
S   -3.49943193   2.27193179   1.11458483
C   -4.26328207   0.72424802   0.76128413
O   -5.01583672   0.16947631   1.49886431
H    0.36743259   1.11977508  -0.56770618
H    0.23822300  -0.62341920   1.51786131
H   -1.42913754  -0.08315449   1.62102081
H    1.02525126   1.73870091   1.80780713
H   -0.65074273   2.26015858   2.01129426
H    0.43189477   1.89461442   4.21338344
H   -0.89407931   0.75737995   3.97669939
H    0.77492443   0.21929068   3.78120646
H   -1.63442640   1.72716064  -0.29610593
H   -2.06852767   3.45994800  -0.37028100
H   -3.04715717   2.25544655  -1.25851994
H   -3.95366251   0.34000892  -0.22306762
22
Energy:   -17.6050939806
C    0.09092751   1.05010907   3.62031178
C    0.03522175   1.42076494   2.14339279
C   -0.42606738   0.22744514   1.30828209
C   -0.38188575   0.45286324  -0.16334264
C   -0.96299094  -0.45270587  -1.01793679
N   -1.47938159  -1.21184919  -1.72407681
C   -2.47027468   2.45270267  -0.36030431
S   -3.49888894   2.27166549   1.11459475
C   -4.26322610   0.72420116   0.76121151
O   -5.01587686   0.16964098   1.49884048
H    0.36672378   1.12022197  -0.56780578
H    0.23811918  -0.62266348   1.51591305
H   -1.42939859  -0.08301037   1.62162647
H    1.02509508   1.73865673   1.80780885
H   -0.65067528   2.26066553   2.01176299
H    0.43194664   1.89446830   4.21347355
H   -0.89408395   0.75730105   3.97682351
H    0.77487764   0.21918309   3.78105952
H   -1.63357395   1.72605842  -0.29545714
H   -2.06736470   3.45905976  -0.37020741
H   -3.04605960   2.25436343  -1.25839425
H   -3.95385352   0.33993569  -0.22321187
22
Energy:   -17.6050386363
C    0.09088815   1.05003778   3.62034292
C    0.03501975   1.42098579   2.14350129
C   -0.42676552   0.22810959   1.30804357
C   -0.38384030   0.45458724  -0.16356915
C   -0.96373571  -0.45200343  -1.01786801
N   -1.47877063  -1.21256645  -1.72380452
C   -2.46957349   2.45201506  -0.36002055
S   -3.49834853   2.27140024   1.11460351
C   -4.26316634   0.72415502   0.76113713
O   -5.01591495   0.16980337   1.49881960
H    0.36603601   1.12064607  -0.56789645
H    0.23801502  -0.62191244   1.51395870
H   -1.42965717  -0.08287357   1.62223565
H    1.02494111   1.73860716   1.80781032
H   -0.65060742   2.26116468   2.01222371
H    0.43199581   1.89432810   4.21356024
H   -0.89408905   0.75722510   3.97694785
H    0.77483309   0.21908069   3.78092014
H   -1.63271953   1.72495783  -0.29482172
H   -2.06621498   3.45817879  -0.37013159
H   -3.04497535   2.25328880  -1.25826941
H   -3.95404322   0.33986299  -0.22335594
22
Energy:   -17.6049822503
C    0.09084870   1.04996806   3.62037567
C    0.03481887   1.42120212   2.14360925
C   -0.42746698   0.22877277   1.30781047
C   -0.38579500   0.45634944  -0.16377291
C   -0.96460710  -0.45146151  -1.01795939
N   -1.47804597  -1.21313307  -1.72338874
C   -2.46887557   2.45132796  -0.35973685
S   -3.49780740   2.27113552   1.11461118
C   -4.26310821   0.72410643   0.76106506
O   -5.01594612   0.16996876   1.49879553
H    0.36536718   1.12104790  -0.56797567
H    0.23791030  -0.62115939   1.51198048
H   -1.42991626  -0.08274342   1.62285127
H    1.02478855   1.73855082   1.80781035
H   -0.65053713   2.26165742   2.01268019
H    0.43204289   1.89419382   4.21364480
H   -0.89409374   0.75714985   3.97707278
H    0.77478973   0.21898071   3.78078721
H   -1.63186088   1.72385799  -0.29419681
H   -2.06507171   3.45729969  -0.37005357
H   -3.04389814   2.25221607  -1.25814365
H   -3.95423135   0.33978855  -0.22350074
22
Energy:   -17.6049248017
C    0.09081077   1.04990025   3.62040850
C    0.03461950   1.42141253   2.14371806
C   -0.42817499   0.22943699   1.30757727
C   -0.38778204   0.45810897  -0.16398513
C   -0.96539968  -0.45077908  -1.01792549
N   -1.47738462  -1.21380720  -1.72307336
C   -2.46818748   2.45064781  -0.35945793
S   -3.49726596   2.27087063   1.11461714
C   -4.26304505   0.72406032   0.76098835
O   -5.01597726   0.17013082   1.49877534
H    0.36472139   1.12142800  -0.56804688
H    0.23780749  -0.62040921   1.50998580
H   -1.43017082  -0.08262077   1.62347256
H    1.02463689   1.73848856   1.80780993
H   -0.65046760   2.26214479   2.01312999
H    0.43208747   1.89406478   4.21372663
H   -0.89409821   0.75707599   3.97719762
H    0.77474950   0.21888575   3.78066143
H   -1.63099231   1.72275232  -0.29358193
H   -2.06393497   3.45642404  -0.36997175
H   -3.04282836   2.25114694  -1.25801369
H   -3.95441729   0.33971447  -0.22364577
22
Energy:   -17.6048679869
C    0.09077443   1.04983855   3.62043983
C    0.03443058   1.42160175   2.14382433
C   -0.42886515   0.23008796   1.30735917
C   -0.38970823   0.45980620  -0.16416095
C   -0.96631994  -0.45034102  -1.01810445
N   -1.47660185  -1.21424433  -1.72257262
C   -2.46753855   2.44999237  -0.35920139
S   -3.49674686   2.27061716   1.11462331
C   -4.26298652   0.72401242   0.76091687
O   -5.01600046   0.17029083   1.49875381
H    0.36413083   1.12179451  -0.56811632
H    0.23771297  -0.61969393   1.50805493
H   -1.43041226  -0.08250598   1.62407221
H    1.02449358   1.73842493   1.80780879
H   -0.65040214   2.26261187   2.01355747
H    0.43212940   1.89394375   4.21380427
H   -0.89410290   0.75700615   3.97731789
H    0.77471210   0.21879599   3.78054448
H   -1.63015356   1.72168934  -0.29299834
H   -2.06284546   3.45558586  -0.36989142
H   -3.04179907   2.25012173  -1.25788051
H   -3.95459535   0.33964232  -0.22378664
22
Energy:   -17.6048195091
C    0.09074666   1.04979555   3.62046028
C    0.03429084   1.42173097   2.14391165
C   -0.42940856   0.23061258   1.30719376
C   -0.39123774   0.46109076  -0.16427628
C   -0.96715663  -0.45018064  -1.01841460
N   -1.47586970  -1.21439690  -1.72201500
C   -2.46705380   2.44948229  -0.35902138
S   -3.49634595   2.27042182   1.11463037
C   -4.26294884   0.72396801   0.76086902
O   -5.01600874   0.17042095   1.49872844
H    0.36371283   1.12209432  -0.56817669
H    0.23764651  -0.61915056   1.50655357
H   -1.43059372  -0.08242017   1.62453517
H    1.02438388   1.73837325   1.80780777
H   -0.65035586   2.26297456   2.01388447
H    0.43216080   1.89385323   4.21386349
H   -0.89410737   0.75695089   3.97741087
H    0.77468443   0.21872839   3.78045893
H   -1.62949878   1.72086612  -0.29255116
H   -2.06200526   3.45494369  -0.36982647
H   -3.04099799   2.24933367  -1.25776295
H   -3.95473114   0.33958581  -0.22389554
22
Energy:   -17.6047267910
C    0.09070337   1.04994412   3.62037323
C    0.03414545   1.42146232   2.14424948
C   -0.43029576   0.23208997   1.30682682
C   -0.39553098   0.46156797  -0.16480984
C   -0.96787908  -0.44872977  -1.01799415
N   -1.47473409  -1.21489195  -1.72120750
C   -2.46663870   2.44844008  -0.35908884
S   -3.49564667   2.27009506   1.11468178
C   -4.26287822   0.72387955   0.76076772
O   -5.01601182   0.17065876   1.49868466
H    0.36386947   1.12331518  -0.56866314
H    0.23766199  -0.61838233   1.50395019
H   -1.43095205  -0.08230739   1.62530621
H    1.02421684   1.73830058   1.80778794
H   -0.65042076   2.26377034   2.01441036
H    0.43220088   1.89365777   4.21396043
H   -0.89415882   0.75683730   3.97759069
H    0.77468573   0.21855391   3.78031533
H   -1.62819606   1.71931707  -0.29175767
H   -2.06046671   3.45398408  -0.36969174
H   -3.03939983   2.24802907  -1.25724335
H   -3.95496779   0.33948809  -0.22408269
22
Energy:   -17.6045247470
C    0.09057675   1.04935576   3.62074737
C    0.03330826   1.42300968   2.14426999
C   -0.43267952   0.23311180   1.30613721
C   -0.39954454   0.47108174  -0.16497122
C   -0.97114218  -0.44693005  -1.01821569
N   -1.47282469  -1.21790080  -1.72090496
C   -2.46358285   2.44647324  -0.35733138
S   -3.49384308   2.26921686   1.11454367
C   -4.26259306   0.72378945   0.76047809
O   -5.01610572   0.17115721   1.49868583
H    0.36037206   1.12266513  -0.56793105
H    0.23698327  -0.61546036   1.49685579
H   -1.43177408  -0.08199111   1.62759539
H    1.02370410   1.73793320   1.80780342
H   -0.64989767   2.26493306   2.01584989
H    0.43233738   1.89339314   4.21417857
H   -0.89408599   0.75665343   3.97795985
H    0.77451032   0.21840164   3.78002897
H   -1.62543729   1.71575067  -0.28998507
H   -2.05697596   3.45083607  -0.36937987
H   -3.03644829   2.24437343  -1.25745620
H   -3.95555234   0.33922468  -0.22459278
22
Energy:   -17.6042820045
C    0.09047608   1.04939290   3.62074402
C    0.03278735   1.42300168   2.14488587
C   -0.43542597   0.23623619   1.30527075
C   -0.40926847   0.47596076  -0.16591042
C   -0.97409240  -0.44366163  -1.01771737
N   -1.46956054  -1.21952278  -1.71892708
C   -2.46184968   2.44391134  -0.35693308
S   -3.49193688   2.26833751   1.11453892
C   -4.26235211   0.72358367   0.76017888
O   -5.01604354   0.17182032   1.49860162
H    0.35974322   1.12409968  -0.56835015
H    0.23680710  -0.61305023   1.48913992
H   -1.43261502  -0.08177739   1.62991476
H    1.02324819   1.73757386   1.80777406
H   -0.64982279   2.26663524   2.01718142
H    0.43243927   1.89304554   4.21439449
H   -0.89414507   0.75640323   3.97839733
H    0.77447295   0.21810404   3.77979149
H   -1.62176920   1.71141243  -0.28810188
H   -2.05306906   3.44791930  -0.36891719
H   -3.03255175   2.24071434  -1.25644452
H   -3.95616333   0.33893665  -0.22514526
22
Energy:   -17.6040110609
C    0.09037205   1.04905279   3.62101432
C    0.03205827   1.42395194   2.14513891
C   -0.43801417   0.23802806   1.30446123
C   -0.41622288   0.48492859  -0.16624729
C   -0.97771857  -0.44092119  -1.01760300
N   -1.46663259  -1.22207827  -1.71778436
C   -2.45912933   2.44153282  -0.35544820
S   -3.49000200   2.26746883   1.11430846
C   -4.26202240   0.72347716   0.75981573
O   -5.01601150   0.17244134   1.49860745
H    0.35744175   1.12362581  -0.56781563
H    0.23616938  -0.61003504   1.48100087
H   -1.43351904  -0.08162333   1.63245140
H    1.02277369   1.73710605   1.80777317
H   -0.64945742   2.26789173   2.01848757
H    0.43254500   1.89280593   4.21456226
H   -0.89410981   0.75620442   3.97877596
H    0.77438823   0.21792549   3.77964234
H   -1.61815462   1.70704326  -0.28642381
H   -2.04940931   3.44473668  -0.36842091
H   -3.02928079   2.23687852  -1.25620325
H   -3.95675588   0.33863490  -0.22572964
22
Energy:   -17.6037173343
C    0.09030454   1.04895938   3.62110740
C    0.03153947   1.42415605   2.14562135
C   -0.44084318   0.24073288   1.30362683
C   -0.42563086   0.49179328  -0.16687829
C   -0.98112917  -0.43753706  -1.01713287
N   -1.46310237  -1.22382812  -1.71587725
C   -2.45718062   2.43906410  -0.35475885
S   -3.48815999   2.26668975   1.11410392
C   -4.26173976   0.72332415   0.75946168
O   -5.01585472   0.17314370   1.49856931
H    0.35662859   1.12378644  -0.56773803
H    0.23584520  -0.60747579   1.47292700
H   -1.43427704  -0.08155190   1.63484190
H    1.02237882   1.73665922   1.80776915
H   -0.64931372   2.26919288   2.01958299
H    0.43263016   1.89258307   4.21470764
H   -0.89412693   0.75599924   3.97914054
H    0.77437197   0.21771914   3.77956823
H   -1.61402055   1.70225788  -0.28486091
H   -2.04591594   3.44176584  -0.36782478
H   -3.02578021   2.23330685  -1.25527441
H   -3.95731417   0.33833327  -0.22631734
22
Energy:   -17.6034015297
C    0.09024811   1.04872358   3.62132418
C    0.03097727   1.42474296   2.14591787
C   -0.44332828   0.24262459   1.30282541
C   -0.43378473   0.50074284  -0.16717974
C   -0.98476862  -0.43432777  -1.01676494
N   -1.45973364  -1.22596565  -1.71439130
C   -2.45478068   2.43664864  -0.35340601
S   -3.48637297   2.26601233   1.11366811
C   -4.26140637   0.72325266   0.75905335
O   -5.01569957   0.17380885   1.49860110
H    0.35511632   1.12279882  -0.56716138
H    0.23521492  -0.60461499   1.46490628
H   -1.43506660  -0.08156500   1.63723501
H    1.02202309   1.73617985   1.80778827
H   -0.64907338   2.27015238   2.02053399
H    0.43270429   1.89242134   4.21479912
H   -0.89409596   0.75583226   3.97944106
H    0.77435691   0.21756741   3.77958093
H   -1.60973302   1.69727396  -0.28352577
H   -2.04280848   3.43889414  -0.36720243
H   -3.02285074   2.22983873  -1.25476888
H   -3.95783287   0.33803649  -0.22691080
22
Energy:   -17.6030663667
C    0.09022685   1.04858635   3.62143864
C    0.03057647   1.42492943   2.14629998
C   -0.44595321   0.24497426   1.30201972
C   -0.44316447   0.50872610  -0.16758132
C   -0.98830186  -0.43110075  -1.01643810
N   -1.45598983  -1.22732200  -1.71231588
C   -2.45288610   2.43436142  -0.35262266
S   -3.48474734   2.26547294   1.11320118
C   -4.26111300   0.72316779   0.75865096
O   -5.01545876   0.17450080   1.49861376
H    0.35443830   1.12191825  -0.56678954
H    0.23481889  -0.60217925   1.45730887
H   -1.43565808  -0.08163892   1.63938724
H    1.02175881   1.73574579   1.80781990
H   -0.64895822   2.27096244   2.02126037
H    0.43276543   1.89229170   4.21486866
H   -0.89408585   0.75567913   3.97970763
H    0.77438180   0.21741760   3.77966009
H   -1.60494572   1.69183190  -0.28232410
H   -2.04011986   3.43624130  -0.36652665
H   -3.01996815   2.22675619  -1.25378671
H   -3.95830735   0.33775490  -0.22748488
22
Energy:   -17.6027051745
C    0.09021954   1.04839703   3.62160959
C    0.03021533   1.42523229   2.14656765
C   -0.44814804   0.24673659   1.30123214
C   -0.45212228   0.51798108  -0.16782768
C   -0.99162529  -0.42763527  -1.01588018
N   -1.45252459  -1.22908833  -1.71070041
C   -2.45081491   2.43209533  -0.35134139
S   -3.48320378   2.26509049   1.11250394
C   -4.26081420   0.72313225   0.75823766
O   -5.01519977   0.17515735   1.49865375
H    0.35344370   1.12024862  -0.56614043
H    0.23418254  -0.59957591   1.45006164
H   -1.43622178  -0.08178770   1.64140266
H    1.02156964   1.73532911   1.80786916
H   -0.64884118   2.27149770   2.02181533
H    0.43280855   1.89218885   4.21489052
H   -0.89405176   0.75555972   3.97992511
H    0.77442238   0.21729209   3.77980450
H   -1.59970636   1.68587180  -0.28128628
H   -2.03786928   3.43395846  -0.36585508
H   -3.01766879   2.22391404  -1.25312375
H   -3.95874588   0.33748314  -0.22805290
22
Energy:   -17.6023234398
C    0.09023538   1.04824264   3.62169524
C    0.03000136   1.42533618   2.14689694
C   -0.45039492   0.24882027   1.30044928
C   -0.46163117   0.52667223  -0.16810222
C   -0.99482914  -0.42456862  -1.01566971
N   -1.44884025  -1.23002709  -1.70854262
C   -2.44929551   2.43028131  -0.35062827
S   -3.48189866   2.26488451   1.11188591
C   -4.26054465   0.72308339   0.75782455
O   -5.01491135   0.17579152   1.49869647
H    0.35289770   1.11849409  -0.56558373
H    0.23375591  -0.59743259   1.44352605
H   -1.43654266  -0.08198424   1.64309436
H    1.02144983   1.73496482   1.80793100
H   -0.64877719   2.27176877   2.02216504
H    0.43282596   1.89208609   4.21487597
H   -0.89400654   0.75547146   3.98011031
H    0.77446976   0.21720210   3.77999026
H   -1.59381019   1.67926540  -0.28031781
H   -2.03612554   3.43199154  -0.36517178
H   -3.01558157   2.22151310  -1.25215700
H   -3.95914156   0.33722186  -0.22860014
22
Energy:   -17.6019079155
C    0.09025375   1.04809279   3.62173848
C    0.02979848   1.42527362   2.14688975
C   -0.45207939   0.25028858   1.29962194
C   -0.47067111   0.53591420  -0.16810215
C   -0.99750453  -0.42101338  -1.01516084
N   -1.44554229  -1.23133993  -1.70680980
C   -2.44804138   2.42873126  -0.34941149
S   -3.48109619   2.26479430   1.11170291
C   -4.26023654   0.72309909   0.75740556
O   -5.01457686   0.17646105   1.49876401
H    0.35190832   1.11602536  -0.56479622
H    0.23283748  -0.59488601   1.43752958
H   -1.43652677  -0.08217522   1.64447218
H    1.02137384   1.73465317   1.80804445
H   -0.64869819   2.27177373   2.02239492
H    0.43285293   1.89204944   4.21491559
H   -0.89399201   0.75540174   3.98029647
H    0.77456072   0.21709879   3.78022754
H   -1.58678493   1.67154258  -0.27942511
H   -2.03455948   3.43113648  -0.36453326
H   -3.01446428   2.21926120  -1.25217242
H   -3.95950339   0.33689663  -0.22922701
22
Energy:   -17.6014929688
C    0.09028589   1.04793011   3.62189678
C    0.02969752   1.42515102   2.14691018
C   -0.45404907   0.25240112   1.29751651
C   -0.47833532   0.54267938  -0.16856962
C   -0.99981876  -0.41837408  -1.01516209
N   -1.44195491  -1.23075424  -1.70394486
C   -2.44723095   2.42850242  -0.35019879
S   -3.48180653   2.26456144   1.11342516
C   -4.25982945   0.72324700   0.75699667
O   -5.01417747   0.17723515   1.49885181
H    0.35043350   1.11330826  -0.56376723
H    0.23236449  -0.59324548   1.43299973
H   -1.43618135  -0.08238998   1.64555180
H    1.02128775   1.73441330   1.80817678
H   -0.64854284   2.27143568   2.02249750
H    0.43291272   1.89213237   4.21505724
H   -0.89397861   0.75536322   3.98043343
H    0.77463325   0.21704606   3.78042830
H   -1.57943358   1.66368835  -0.27854908
H   -2.03339457   3.43082007  -0.36390764
H   -3.01378116   2.21746432  -1.25232280
H   -3.95979319   0.33646258  -0.22995589
22
Energy:   -17.6012541043
C    0.09030779   1.04784629   3.62201022
C    0.02968226   1.42507687   2.14697537
C   -0.45520811   0.25376186   1.29607241
C   -0.48192914   0.54524599  -0.16899462
C   -1.00079695  -0.41708436  -1.01512103
N   -1.44012617  -1.23007815  -1.70229692
C   -2.44693960   2.42874331  -0.35127732
S   -3.48255506   2.26439475   1.11480477
C   -4.25959636   0.72335448   0.75678923
O   -5.01396337   0.17765058   1.49890317
H    0.34962917   1.11195073  -0.56321413
H    0.23232907  -0.59275280   1.43109701
H   -1.43593851  -0.08250872   1.64603515
H    1.02123792   1.73430962   1.80824457
H   -0.64844675   2.27118730   2.02251710
H    0.43295134   1.89220240   4.21515100
H   -0.89396876   0.75535100   3.98048646
H    0.77466041   0.21703635   3.78051541
H   -1.57573286   1.65978556  -0.27810190
H   -2.03291903   3.43069719  -0.36358674
H   -3.01344743   2.21668883  -1.25229826
H   -3.95992131   0.33621900  -0.23034449
22
Energy:   -17.6009017109
C    0.09034901   1.04775560   3.62219259
C    0.02974746   1.42493435   2.14724074
C   -0.45707852   0.25618198   1.29361004
C   -0.48633572   0.54665000  -0.16999473
C   -1.00136743  -0.41488275  -1.01442495
N   -1.43804369  -1.22904939  -1.70027509
C   -2.44684983   2.42961857  -0.35397921
S   -3.48405329   2.26410140   1.11729062
C   -4.25926142   0.72352991   0.75652030
O   -5.01368806   0.17820029   1.49898125
H    0.34874547   1.11045202  -0.56255951
H    0.23276737  -0.59285303   1.42932386
H   -1.43555330  -0.08268153   1.64655864
H    1.02116287   1.73420531   1.80831851
H   -0.64831610   2.27078083   2.02248761
H    0.43300794   1.89231961   4.21529344
H   -0.89394826   0.75534914   3.98052684
H    0.77466912   0.21705622   3.78059398
H   -1.57124118   1.65513149  -0.27751604
H   -2.03251772   3.43042288  -0.36316595
H   -3.01283289   2.21596506  -1.25181201
H   -3.96005465   0.33588869  -0.23084694
22
Energy:   -17.5990960246
C    0.09051730   1.04811954   3.62271097
C    0.02988920   1.42348749   2.14782497
C   -0.45348290   0.25133233   1.29644754
C   -0.52280257   0.59339661  -0.17358399
C   -0.99944376  -0.42009302  -1.01422680
N   -1.43763734  -1.23480193  -1.70294610
C   -2.46291227   2.43613191  -0.34118807
S   -3.47267978   2.26599188   1.10509103
C   -4.25936282   0.72117340   0.75520131
O   -5.01362062   0.17926243   1.49963385
H    0.35578372   1.10360625  -0.56205702
H    0.23387173  -0.59377324   1.42868011
H   -1.43510793  -0.08264457   1.64704650
H    1.02110895   1.73410034   1.80835859
H   -0.64836572   2.27019969   2.02211710
H    0.43299755   1.89241442   4.21545733
H   -0.89390420   0.75528597   3.98055384
H    0.77469482   0.21712720   3.78066177
H   -1.54991564   1.63203641  -0.27577793
H   -2.02954962   3.42955565  -0.36211830
H   -3.01029743   2.21135455  -1.25202611
H   -3.96047140   0.33581528  -0.23149523
22
Energy:   -17.5968212440
C    0.09053673   1.04825742   3.62283946
C    0.02987207   1.42301872   2.14784465
C   -0.45155126   0.24870864   1.29826609
C   -0.52783832   0.60445181  -0.17400246
C   -0.99961305  -0.42428785  -1.01605264
N   -1.43728759  -1.23564793  -1.70306383
C   -2.47784351   2.44595692  -0.33681256
S   -3.47104729   2.26627298   1.10333271
C   -4.25940650   0.72042862   0.75452318
O   -5.01373764   0.17935052   1.49990365
H    0.37778613   1.07271823  -0.55731008
H    0.23522135  -0.59493255   1.42904448
H   -1.43422914  -0.08192316   1.64772065
H    1.02102261   1.73394493   1.80860107
H   -0.64884887   2.26912456   2.02089299
H    0.43300356   1.89251773   4.21567753
H   -0.89381091   0.75520077   3.98063362
H    0.77464606   0.21726638   3.78068543
H   -1.43307381   1.53392847  -0.26957474
H   -2.01782291   3.42407526  -0.35916214
H   -2.99864017   2.19342849  -1.25231848
H   -3.96194593   0.33636923  -0.23297712
22
Energy:   -17.5966122170
C    0.09055747   1.04839583   3.62296812
C    0.02985565   1.42255049   2.14786324
C   -0.44961921   0.24608564   1.30008522
C   -0.53287407   0.61550700  -0.17442093
C   -0.99978123  -0.42848146  -1.01787898
N   -1.43693743  -1.23649324  -1.70318096
C   -2.49277525   2.45578279  -0.33243604
S   -3.46941461   2.26655339   1.10157508
C   -4.25945077   0.71968385   0.75384376
O   -5.01385496   0.17943877   1.50017515
H    0.39978893   1.04183091  -0.55256254
H    0.23657208  -0.59609064   1.42940834
H   -1.43334986  -0.08120262   1.64839380
H    1.02093626   1.73378952   1.80884354
H   -0.64933201   2.26804943   2.01966888
H    0.43300935   1.89261964   4.21589782
H   -0.89371696   0.75511401   3.98071309
H    0.77459699   0.21740573   3.78071079
H   -1.31623067   1.43582106  -0.26337138
H   -2.00609728   3.41859573  -0.35620626
H   -2.98698142   2.17550226  -1.25260998
H   -3.96341978   0.33692162  -0.23445932
22
Energy:   -17.5973017428
C    0.09056930   1.04849735   3.62312413
C    0.02999898   1.42201015   2.14795984
C   -0.44774780   0.24397129   1.30163179
C   -0.52600712   0.60913072  -0.17364193
C   -0.99767790  -0.43073802  -1.01761751
N   -1.43770730  -1.23916554  -1.70464225
C   -2.50440047   2.46425937  -0.33152485
S   -3.46774643   2.26682081   1.10052739
C   -4.25964053   0.71905396   0.75345590
O   -5.01359156   0.17986870   1.50028871
H    0.40387363   1.03949266  -0.55276851
H    0.23748387  -0.59738790   1.43030712
H   -1.43312457  -0.08124154   1.64821986
H    1.02091666   1.73377317   1.80890468
H   -0.64934780   2.26777367   2.01950559
H    0.43304443   1.89268112   4.21595348
H   -0.89372326   0.75513525   3.98074642
H    0.77456345   0.21743605   3.78072010
H   -1.32319446   1.44634217  -0.26464038
H   -2.00527559   3.41866656  -0.35598969
H   -2.98621017   2.17415928  -1.25267812
H   -3.96357139   0.33684410  -0.23482413
22
Energy:   -17.5974035828
C    0.09057922   1.04852739   3.62318661
C    0.03005538   1.42187230   2.14799339
C   -0.44735104   0.24340207   1.30189729
C   -0.52432262   0.60866351  -0.17374184
C   -0.99743065  -0.43186486  -1.01795124
N   -1.43759354  -1.23940739  -1.70459184
C   -2.50715223   2.46628266  -0.33109760
S   -3.46746376   2.26692104   1.10033835
C   -4.25951975   0.71904064   0.75320717
O   -5.01368358   0.17983590   1.50047579
H    0.40442697   1.03848240  -0.55256868
H    0.23774636  -0.59776329   1.43062104
H   -1.43298875  -0.08129812   1.64819840
H    1.02093283   1.73376930   1.80892680
H   -0.64934022   2.26762306   2.01944092
H    0.43305420   1.89270264   4.21597551
H   -0.89372620   0.75514319   3.98076103
H    0.77456151   0.21743926   3.78074124
H   -1.32431570   1.44838705  -0.26492894
H   -2.00509848   3.41898539  -0.35596674
H   -2.98626382   2.17379939  -1.25297136
H   -3.96362780   0.33683499  -0.23492819
22
Energy:   -17.5974968378
C    0.09059738   1.04855803   3.62327642
C    0.03015059   1.42164833   2.14804227
C   -0.44680216   0.24273994   1.30214073
C   -0.52297487   0.60819481  -0.17389297
C   -0.99678983  -0.43292503  -1.01801372
N   -1.43757921  -1.24005147  -1.70474210
C   -2.51066046   2.46900092  -0.33084923
S   -3.46735146   2.26703408   1.10040219
C   -4.25948043   0.71895925   0.75302299
O   -5.01365571   0.17989204   1.50059313
H    0.40552790   1.03712939  -0.55238542
H    0.23816823  -0.59836567   1.43111699
H   -1.43276906  -0.08140129   1.64814050
H    1.02095980   1.73375981   1.80896496
H   -0.64932812   2.26737272   2.01933493
H    0.43307241   1.89274273   4.21601551
H   -0.89372840   0.75515682   3.98078700
H    0.77455735   0.21744551   3.78078054
H   -1.32539113   1.45078272  -0.26531070
H   -2.00492243   3.41953815  -0.35593557
H   -2.98640659   2.17335037  -1.25336552
H   -3.96371229   0.33681742  -0.23510420
22
Energy:   -17.5976008876
C    0.09063141   1.04858536   3.62341654
C    0.03032330   1.42127326   2.14810561
C   -0.44601589   0.24190202   1.30234358
C   -0.52206440   0.60798142  -0.17409650
C   -0.99600776  -0.43481433  -1.01841315
N   -1.43724202  -1.24056837  -1.70449882
C   -2.51546623   2.47293725  -0.33086914
S   -3.46756578   2.26719763   1.10089765
C   -4.25947138   0.71883725   0.75282616
O   -5.01353838   0.18000261   1.50070525
H    0.40745762   1.03506399  -0.55217187
H    0.23885104  -0.59934203   1.43192291
H   -1.43236892  -0.08160546   1.64801866
H    1.02101402   1.73373825   1.80903567
H   -0.64930763   2.26691875   2.01914661
H    0.43310288   1.89281302   4.21608422
H   -0.89372993   0.75518254   3.98083371
H    0.77455595   0.21745592   3.78086530
H   -1.32623458   1.45367268  -0.26586007
H   -2.00480497   3.42058077  -0.35590552
H   -2.98677878   2.17276289  -1.25397985
H   -3.96385816   0.33680328  -0.23539050
22
Energy:   -17.5976988711
C    0.09068643   1.04859097   3.62360141
C    0.03058953   1.42073435   2.14816040
C   -0.44509006   0.24099403   1.30234961
C   -0.52218425   0.60837213  -0.17450721
C   -0.99460584  -0.43619772  -1.01816074
N   -1.43693941  -1.24185712  -1.70451757
C   -2.52111411   2.47786173  -0.33128682
S   -3.46833787   2.26745436   1.10193597
C   -4.25948804   0.71873724   0.75263968
O   -5.01333922   0.18009919   1.50081156
H    0.41006249   1.03215581  -0.55187090
H    0.23975415  -0.60061900   1.43299079
H   -1.43171370  -0.08196886   1.64782479
H    1.02112125   1.73369296   1.80915353
H   -0.64927752   2.26618676   2.01885103
H    0.43314595   1.89291785   4.21618303
H   -0.89372850   0.75522223   3.98091258
H    0.77456695   0.21746164   3.78103463
H   -1.32600209   1.45621249  -0.26655413
H   -2.00496143   3.42231731  -0.35591612
H   -2.98758118   2.17217970  -1.25483589
H   -3.96408230   0.33683166  -0.23577920
22
Energy:   -17.5977810986
C    0.09075711   1.04855567   3.62375948
C    0.03088187   1.42016551   2.14815326
C   -0.44434916   0.24025033   1.30216337
C   -0.52234525   0.60935324  -0.17488859
C   -0.99379574  -0.43736629  -1.01811935
N   -1.43607399  -1.24282974  -1.70395688
C   -2.52625843   2.48244500  -0.33159180
S   -3.46928661   2.26791503   1.10267947
C   -4.25951030   0.71876458   0.75246629
O   -5.01319330   0.17997266   1.50094249
H    0.41203941   1.02889072  -0.55136513
H    0.24045092  -0.60155934   1.43376859
H   -1.43094806  -0.08248344   1.64764655
H    1.02130210   1.73361365   1.80929965
H   -0.64925791   2.26530792   2.01849365
H    0.43318175   1.89300678   4.21625323
H   -0.89371443   0.75526865   3.98101368
H    0.77460493   0.21744210   3.78130434
H   -1.32414057   1.45722011  -0.26723941
H   -2.00571298   3.42447329  -0.35603984
H   -2.98880113   2.17197863  -1.25563004
H   -3.96434860   0.33699503  -0.23609668
22
Energy:   -17.5978622846
C    0.09084102   1.04847769   3.62389109
C    0.03119547   1.41955863   2.14814244
C   -0.44364311   0.23963189   1.30200759
C   -0.52260520   0.60984893  -0.17504528
C   -0.99320399  -0.43799968  -1.01789168
N   -1.43494971  -1.24400713  -1.70324746
C   -2.53153970   2.48718034  -0.33201152
S   -3.47035561   2.26857758   1.10315435
C   -4.25973906   0.71874605   0.75244547
O   -5.01288372   0.17981104   1.50093878
H    0.41421152   1.02554402  -0.55093082
H    0.24106077  -0.60228955   1.43421339
H   -1.43019308  -0.08312761   1.64747905
H    1.02153463   1.73348044   1.80946852
H   -0.64926810   2.26436030   2.01808051
H    0.43320950   1.89307500   4.21627569
H   -0.89368258   0.75531664   3.98112605
H    0.77465974   0.21740200   3.78166745
H   -1.32117970   1.45747056  -0.26796775
H   -2.00708105   3.42687564  -0.35624478
H   -2.99025450   2.17215132  -1.25615828
H   -3.96465060   0.33729652  -0.23637629
22
Energy:   -17.5979406993
C    0.09093079   1.04837610   3.62401603
C    0.03148963   1.41904320   2.14814396
C   -0.44310072   0.23897806   1.30202516
C   -0.52226225   0.61045637  -0.17513986
C   -0.99291114  -0.43854281  -1.01765142
N   -1.43376002  -1.24532003  -1.70255378
C   -2.53649797   2.49165821  -0.33228651
S   -3.47149689   2.26935577   1.10341530
C   -4.25985295   0.71889967   0.75227108
O   -5.01270654   0.17945782   1.50109977
H    0.41609999   1.02221895  -0.55046624
H    0.24163030  -0.60286029   1.43435262
H   -1.42952578  -0.08380943   1.64737673
H    1.02177893   1.73329939   1.80963650
H   -0.64928824   2.26346260   2.01767132
H    0.43323056   1.89311907   4.21624511
H   -0.89364144   0.75535128   3.98123255
H    0.77472522   0.21734257   3.78207618
H   -1.31762841   1.45720232  -0.26865896
H   -2.00886438   3.42941906  -0.35651650
H   -2.99191142   2.17256956  -1.25664965
H   -3.96495664   0.33770228  -0.23662023
22
Energy:   -17.5980177444
C    0.09102198   1.04827014   3.62414342
C    0.03175287   1.41849406   2.14818920
C   -0.44251012   0.23844186   1.30200687
C   -0.52217336   0.61055672  -0.17513612
C   -0.99266429  -0.43901092  -1.01736483
N   -1.43250984  -1.24658762  -1.70175236
C   -2.54132127   2.49596123  -0.33268647
S   -3.47273588   2.27020317   1.10362493
C   -4.26010595   0.71901653   0.75220267
O   -5.01238305   0.17914727   1.50116314
H    0.41831868   1.01909763  -0.55014222
H    0.24221629  -0.60340401   1.43433954
H   -1.42897728  -0.08451928   1.64731424
H    1.02201540   1.73307744   1.80979705
H   -0.64932010   2.26263931   2.01727399
H    0.43325749   1.89316635   4.21620171
H   -0.89359790   0.75537167   3.98133556
H    0.77479201   0.21727559   3.78250297
H   -1.31376147   1.45676695  -0.26932635
H   -2.01094747   3.43204910  -0.35681962
H   -2.99362400   2.17318451  -1.25698632
H   -3.96526259   0.33818497  -0.23686165
22
Energy:   -17.5980177444
C    0.09102198   1.04827014   3.62414342
C    0.03175287   1.41849406   2.14818920
C   -0.44251012   0.23844186   1.30200687
C   -0.52217336   0.61055672  -0.17513612
C   -0.99266429  -0.43901092  -1.01736483
N   -1.43250984  -1.24658762  -1.70175236
C   -2.54132127   2.49596123  -0.33268647
S   -3.47273588   2.27020317   1.10362493
C   -4.26010595   0.71901653   0.75220267
O   -5.01238305   0.17914727   1.50116314
H    0.41831868   1.01909763  -0.55014222
H    0.24221629  -0.60340401   1.43433954
H   -1.42897728  -0.08451928   1.64731424
H    1.02201540   1.73307744   1.80979705
H   -0.64932010   2.26263931   2.01727399
H    0.43325749   1.89316635   4.21620171
H   -0.89359790   0.75537167   3.98133556
H    0.77479201   0.21727559   3.78250297
H   -1.31376147   1.45676695  -0.26932635
H   -2.01094747   3.43204910  -0.35681962
H   -2.99362400   2.17318451  -1.25698632
H   -3.96526259   0.33818497  -0.23686165
22
Energy:   -17.5980177444
C    0.39711660   0.95385821   3.75180915
C    0.33784749   1.32408213   2.27585492
C   -0.13641550   0.14402993   1.42967259
C   -0.21607874   0.51614479  -0.04747040
C   -0.68656967  -0.53342285  -0.88969911
N   -1.12641522  -1.34099954  -1.57408664
C   -2.54132127   2.49596123  -0.33268647
S   -3.47273588   2.27020317   1.10362493
C   -4.26010595   0.71901653   0.75220267
O   -5.01238305   0.17914727   1.50116314
H    0.72441330   0.92468570  -0.42247650
H    0.54831091  -0.69781594   1.56200527
H   -1.12288266  -0.17893121   1.77497996
H    1.32811002   1.63866551   1.93746277
H   -0.34322549   2.16822738   2.14493971
H    0.73935211   1.79875442   4.34386743
H   -0.58750328   0.66095974   4.10900128
H    1.08088663   0.12286366   3.91016869
H   -1.00766685   1.36235502  -0.14166062
H   -2.01094747   3.43204910  -0.35681962
H   -2.99362400   2.17318451  -1.25698632
H   -3.96526259   0.33818497  -0.23686165
22
Energy:   -17.5980177444
C    0.70321121   0.85944628   3.87947487
C    0.64394211   1.22967020   2.40352065
C    0.16967912   0.04961800   1.55733831
C    0.09001588   0.42173286   0.08019533
C   -0.38047505  -0.62783478  -0.76203339
N   -0.82032060  -1.43541147  -1.44642092
C   -2.54132127   2.49596123  -0.33268647
S   -3.47273588   2.27020317   1.10362493
C   -4.26010595   0.71901653   0.75220267
O   -5.01238305   0.17914727   1.50116314
H    1.03050792   0.83027377  -0.29481078
H    0.85440553  -0.79222787   1.68967099
H   -0.81678804  -0.27334314   1.90264569
H    1.63420464   1.54425358   2.06512849
H   -0.03713087   2.07381545   2.27260543
H    1.04544673   1.70434249   4.47153315
H   -0.28140866   0.56654781   4.23666700
H    1.38698125   0.02845173   4.03783441
H   -0.70157223   1.26794309  -0.01399490
H   -2.01094747   3.43204910  -0.35681962
H   -2.99362400   2.17318451  -1.25698632
H   -3.96526259   0.33818497  -0.23686165
22
Energy:   -17.5980177444
C    1.00930583   0.76503435   4.00714059
C    0.95003673   1.13525827   2.53118637
C    0.47577374  -0.04479393   1.68500404
C    0.39611050   0.32732093   0.20786105
C   -0.07438043  -0.72224671  -0.63436767
N   -0.51422599  -1.52982340  -1.31875520
C   -2.54132127   2.49596123  -0.33268647
S   -3.47273588   2.27020317   1.10362493
C   -4.26010595   0.71901653   0.75220267
O   -5.01238305   0.17914727   1.50116314
H    1.33660253   0.73586184  -0.16714506
H    1.16050015  -0.88663980   1.81733671
H   -0.51069342  -0.36775507   2.03031141
H    1.94029926   1.44984165   2.19279421
H    0.26896375   1.97940352   2.40027116
H    1.35154135   1.60993056   4.59919887
H    0.02468596   0.47213588   4.36433272
H    1.69307587  -0.06596020   4.16550013
H   -0.39547761   1.17353116   0.11367082
H   -2.01094747   3.43204910  -0.35681962
H   -2.99362400   2.17318451  -1.25698632
H   -3.96526259   0.33818497  -0.23686165
22
Energy:   -17.5980177444
C    1.31540045   0.67062242   4.13480631
C    1.25613134   1.04084634   2.65885209
C    0.78186836  -0.13920586   1.81266976
C    0.70220512   0.23290900   0.33552677
C    0.23171418  -0.81665864  -0.50670195
N   -0.20813137  -1.62423533  -1.19108948
C   -2.54132127   2.49596123  -0.33268647
S   -3.47273588   2.27020317   1.10362493
C   -4.26010595   0.71901653   0.75220267
O   -5.01238305   0.17914727   1.50116314
H    1.64269715   0.64144991  -0.03947934
H    1.46659477  -0.98105173   1.94500243
H   -0.20459881  -0.46216700   2.15797713
H    2.24639388   1.35542972   2.32045993
H    0.57505837   1.88499159   2.52793688
H    1.65763597   1.51551863   4.72686459
H    0.33078057   0.37772395   4.49199844
H    1.99917048  -0.16037213   4.29316585
H   -0.08938299   1.07911923   0.24133654
H   -2.01094747   3.43204910  -0.35681962
H   -2.99362400   2.17318451  -1.25698632
H   -3.96526259   0.33818497  -0.23686165
22
Energy:   -17.5980177444
C    1.62149507   0.57621049   4.26247203
C    1.56222596   0.94643441   2.78651781
C    1.08796297  -0.23361779   1.94033548
C    1.00829973   0.13849707   0.46319249
C    0.53780880  -0.91107056  -0.37903622
N    0.09796325  -1.71864726  -1.06342376
C   -2.54132127   2.49596123  -0.33268647
S   -3.47273588   2.27020317   1.10362493
C   -4.26010595   0.71901653   0.75220267
O   -5.01238305   0.17914727   1.50116314
H    1.94879177   0.54703798   0.08818639
H    1.77268939  -1.07546366   2.07266815
H    0.10149581  -0.55657893   2.28564285
H    2.55248849   1.26101780   2.44812566
H    0.88115299   1.79057966   2.65560260
H    1.96373059   1.42110670   4.85453031
H    0.63687519   0.28331202   4.61966416
H    2.30526510  -0.25478406   4.42083157
H    0.21671163   0.98470730   0.36900226
H   -2.01094747   3.43204910  -0.35681962
H   -2.99362400   2.17318451  -1.25698632
H   -3.96526259   0.33818497  -0.23686165
22
Energy:   -17.5980177444
C    1.92758969   0.48179856   4.39013775
C    1.86832058   0.85202248   2.91418353
C    1.39405759  -0.32802972   2.06800120
C    1.31439435   0.04408514   0.59085821
C    0.84390342  -1.00548249  -0.25137050
N    0.40405787  -1.81305919  -0.93575804
C   -2.54132127   2.49596123  -0.33268647
S   -3.47273588   2.27020317   1.10362493
C   -4.26010595   0.71901653   0.75220267
O   -5.01238305   0.17914727   1.50116314
H    2.25488639   0.45262606   0.21585211
H    2.07878401  -1.16987559   2.20033387
H    0.40759043  -0.65099086   2.41330857
H    2.85858311   1.16660587   2.57579138
H    1.18724761   1.69616773   2.78326832
H    2.26982521   1.32669477   4.98219603
H    0.94296981   0.18890009   4.74732988
H    2.61135972  -0.34919599   4.54849730
H    0.52280624   0.89029537   0.49666798
H   -2.01094747   3.43204910  -0.35681962
H   -2.99362400   2.17318451  -1.25698632
H   -3.96526259   0.33818497  -0.23686165
22
Energy:   -17.5980177444
C    2.23368431   0.38738663   4.51780347
C    2.17441520   0.75761055   3.04184925
C    1.70015221  -0.42244165   2.19566692
C    1.62048897  -0.05032679   0.71852393
C    1.14999804  -1.09989442  -0.12370478
N    0.71015249  -1.90747112  -0.80809232
C   -2.54132127   2.49596123  -0.33268647
S   -3.47273588   2.27020317   1.10362493
C   -4.26010595   0.71901653   0.75220267
O   -5.01238305   0.17914727   1.50116314
H    2.56098101   0.35821413   0.34351783
H    2.38487862  -1.26428752   2.32799959
H    0.71368505  -0.74540279   2.54097429
H    3.16467773   1.07219394   2.70345710
H    1.49334222   1.60175580   2.91093404
H    2.57591982   1.23228284   5.10986175
H    1.24906443   0.09448816   4.87499560
H    2.91745434  -0.44360792   4.67616302
H    0.82890086   0.79588344   0.62433370
H   -2.01094747   3.43204910  -0.35681962
H   -2.99362400   2.17318451  -1.25698632
H   -3.96526259   0.33818497  -0.23686165
22
Energy:   -17.5980177444
C    2.53977892   0.29297470   4.64546919
C    2.48050982   0.66319862   3.16951497
C    2.00624683  -0.51685358   2.32333264
C    1.92658359  -0.14473871   0.84618965
C    1.45609266  -1.19430635   0.00396094
N    1.01624711  -2.00188305  -0.68042660
C   -2.54132127   2.49596123  -0.33268647
S   -3.47273588   2.27020317   1.10362493
C   -4.26010595   0.71901653   0.75220267
O   -5.01238305   0.17914727   1.50116314
H    2.86707563   0.26380220   0.47118355
H    2.69097324  -1.35869945   2.45566531
H    1.01977967  -0.83981472   2.66864001
H    3.47077235   0.97778201   2.83112282
H    1.79943684   1.50734387   3.03859976
H    2.88201444   1.13787091   5.23752748
H    1.55515905   0.00007623   5.00266133
H    3.22354896  -0.53801985   4.80382874
H    1.13499548   0.70147151   0.75199942
H   -2.01094747   3.43204910  -0.35681962
H   -2.99362400   2.17318451  -1.25698632
H   -3.96526259   0.33818497  -0.23686165
22
Energy:   -17.5980177444
C    2.84587354   0.19856277   4.77313491
C    2.78660444   0.56878669   3.29718069
C    2.31234145  -0.61126551   2.45099836
C    2.23267821  -0.23915064   0.97385537
C    1.76218728  -1.28871828   0.13162666
N    1.32234173  -2.09629498  -0.55276088
C   -2.54132127   2.49596123  -0.33268647
S   -3.47273588   2.27020317   1.10362493
C   -4.26010595   0.71901653   0.75220267
O   -5.01238305   0.17914727   1.50116314
H    3.17317025   0.16939027   0.59884927
H    2.99706786  -1.45311137   2.58333103
H    1.32587429  -0.93422665   2.79630573
H    3.77686697   0.88337008   2.95878854
H    2.10553146   1.41293194   3.16626548
H    3.18810906   1.04345898   5.36519320
H    1.86125367  -0.09433570   5.13032705
H    3.52964358  -0.63243177   4.93149446
H    1.44109010   0.60705958   0.87966514
H   -2.01094747   3.43204910  -0.35681962
H   -2.99362400   2.17318451  -1.25698632
H   -3.96526259   0.33818497  -0.23686165
22
Energy:   -17.5980177444
C    3.15196816   0.10415084   4.90080063
C    3.09269905   0.47437476   3.42484641
C    2.61843607  -0.70567744   2.57866408
C    2.53877283  -0.33356257   1.10152109
C    2.06828189  -1.38313021   0.25929238
N    1.62843634  -2.19070691  -0.42509515
C   -2.54132127   2.49596123  -0.33268647
S   -3.47273588   2.27020317   1.10362493
C   -4.26010595   0.71901653   0.75220267
O   -5.01238305   0.17914727   1.50116314
H    3.47926486   0.07497834   0.72651499
H    3.30316248  -1.54752330   2.71099675
H    1.63196891  -1.02863858   2.92397145
H    4.08296159   0.78895815   3.08645426
H    2.41162608   1.31852001   3.29393120
H    3.49420368   0.94904705   5.49285892
H    2.16734828  -0.18874763   5.25799277
H    3.83573819  -0.72684370   5.05916018
H    1.74718472   0.51264765   1.00733086
H   -2.01094747   3.43204910  -0.35681962
H   -2.99362400   2.17318451  -1.25698632
H   -3.96526259   0.33818497  -0.23686165
22
Energy:   -17.5980177444
C    3.45806278   0.00973891   5.02846636
C    3.39879367   0.37996283   3.55251213
C    2.92453068  -0.80008937   2.70632980
C    2.84486744  -0.42797450   1.22918681
C    2.37437651  -1.47754214   0.38695810
N    1.93453096  -2.28511884  -0.29742943
C   -2.54132127   2.49596123  -0.33268647
S   -3.47273588   2.27020317   1.10362493
C   -4.26010595   0.71901653   0.75220267
O   -5.01238305   0.17914727   1.50116314
H    3.78535948  -0.01943359   0.85418071
H    3.60925710  -1.64193523   2.83866247
H    1.93806352  -1.12305051   3.05163717
H    4.38905620   0.69454622   3.21411998
H    2.71772070   1.22410808   3.42159692
H    3.80029830   0.85463512   5.62052464
H    2.47344290  -0.28315956   5.38565849
H    4.14183281  -0.82125563   5.18682590
H    2.05327934   0.41823572   1.13499658
H   -2.01094747   3.43204910  -0.35681962
H   -2.99362400   2.17318451  -1.25698632
H   -3.96526259   0.33818497  -0.23686165
22
Energy:   -17.5980177444
C    3.76415740  -0.08467302   5.15613208
C    3.70488829   0.28555090   3.68017786
C    3.23062530  -0.89450130   2.83399552
C    3.15096206  -0.52238643   1.35685253
C    2.68047113  -1.57195407   0.51462382
N    2.24062558  -2.37953077  -0.16976371
C   -2.54132127   2.49596123  -0.33268647
S   -3.47273588   2.27020317   1.10362493
C   -4.26010595   0.71901653   0.75220267
O   -5.01238305   0.17914727   1.50116314
H    4.09145410  -0.11384552   0.98184643
H    3.91535172  -1.73634716   2.96632820
H    2.24415814  -1.21746244   3.17930289
H    4.69515082   0.60013429   3.34178570
H    3.02381532   1.12969615   3.54926264
H    4.10639292   0.76022319   5.74819036
H    2.77953752  -0.37757149   5.51332421
H    4.44792743  -0.91566756   5.31449162
H    2.35937396   0.32382379   1.26266231
H   -2.01094747   3.43204910  -0.35681962
H   -2.99362400   2.17318451  -1.25698632
H   -3.96526259   0.33818497  -0.23686165
22
Energy:   -17.5980177444
C    4.07025202  -0.17908495   5.28379780
C    4.01098291   0.19113897   3.80784358
C    3.53671992  -0.98891323   2.96166125
C    3.45705668  -0.61679836   1.48451826
C    2.98656575  -1.66636600   0.64228954
N    2.54672020  -2.47394270  -0.04209799
C   -2.54132127   2.49596123  -0.33268647
S   -3.47273588   2.27020317   1.10362493
C   -4.26010595   0.71901653   0.75220267
O   -5.01238305   0.17914727   1.50116314
H    4.39754872  -0.20825745   1.10951215
H    4.22144633  -1.83075909   3.09399392
H    2.55025276  -1.31187437   3.30696862
H    5.00124544   0.50572236   3.46945142
H    3.32990994   1.03528422   3.67692836
H    4.41248753   0.66581126   5.87585608
H    3.08563214  -0.47198342   5.64098993
H    4.75402205  -1.01007949   5.44215734
H    2.66546857   0.22941186   1.39032803
H   -2.01094747   3.43204910  -0.35681962
H   -2.99362400   2.17318451  -1.25698632
H   -3.96526259   0.33818497  -0.23686165
22
Energy:   -17.5980177444
C    4.37634663  -0.27349688   5.41146352
C    4.31707753   0.09672704   3.93550930
C    3.84281454  -1.08332516   3.08932697
C    3.76315130  -0.71121029   1.61218398
C    3.29266037  -1.76077793   0.76995526
N    2.85281482  -2.56835463   0.08556773
C   -2.54132127   2.49596123  -0.33268647
S   -3.47273588   2.27020317   1.10362493
C   -4.26010595   0.71901653   0.75220267
O   -5.01238305   0.17914727   1.50116314
H    4.70364334  -0.30266938   1.23717787
H    4.52754095  -1.92517102   3.22165964
H    2.85634738  -1.40628630   3.43463434
H    5.30734006   0.41131043   3.59711714
H    3.63600455   0.94087229   3.80459409
H    4.71858215   0.57139934   6.00352180
H    3.39172676  -0.56639535   5.76865565
H    5.06011667  -1.10449142   5.56982306
H    2.97156319   0.13499993   1.51799375
H   -2.01094747   3.43204910  -0.35681962
H   -2.99362400   2.17318451  -1.25698632
H   -3.96526259   0.33818497  -0.23686165
22
Energy:   -17.5980177444
C    4.68244125  -0.36790881   5.53912924
C    4.62317215   0.00231511   4.06317502
C    4.14890916  -1.17773709   3.21699269
C    4.06924592  -0.80562222   1.73984970
C    3.59875499  -1.85518986   0.89762098
N    3.15890944  -2.66276656   0.21323345
C   -2.54132127   2.49596123  -0.33268647
S   -3.47273588   2.27020317   1.10362493
C   -4.26010595   0.71901653   0.75220267
O   -5.01238305   0.17914727   1.50116314
H    5.00973796  -0.39708131   1.36484360
H    4.83363557  -2.01958295   3.34932536
H    3.16244200  -1.50069823   3.56230006
H    5.61343468   0.31689850   3.72478286
H    3.94209917   0.84646037   3.93225981
H    5.02467677   0.47698741   6.13118752
H    3.69782138  -0.66080728   5.89632137
H    5.36621129  -1.19890335   5.69748878
H    3.27765781   0.04058800   1.64565947
H   -2.01094747   3.43204910  -0.35681962
H   -2.99362400   2.17318451  -1.25698632
H   -3.96526259   0.33818497  -0.23686165
22
Energy:   -17.5980177444
C    4.98853587  -0.46232074   5.66679496
C    4.92926676  -0.09209682   4.19084074
C    4.45500378  -1.27214901   3.34465841
C    4.37534054  -0.90003415   1.86751542
C    3.90484961  -1.94960179   1.02528671
N    3.46500405  -2.75717849   0.34089917
C   -2.54132127   2.49596123  -0.33268647
S   -3.47273588   2.27020317   1.10362493
C   -4.26010595   0.71901653   0.75220267
O   -5.01238305   0.17914727   1.50116314
H    5.31583257  -0.49149324   1.49250932
H    5.13973019  -2.11399488   3.47699108
H    3.46853662  -1.59511016   3.68996578
H    5.91952930   0.22248657   3.85244859
H    4.24819379   0.75204844   4.05992553
H    5.33077139   0.38257548   6.25885324
H    4.00391600  -0.75521921   6.02398709
H    5.67230590  -1.29331528   5.82515450
H    3.58375243  -0.05382393   1.77332519
H   -2.01094747   3.43204910  -0.35681962
H   -2.99362400   2.17318451  -1.25698632
H   -3.96526259   0.33818497  -0.23686165
22
Energy:   -17.5980177444
C    5.29463049  -0.55673267   5.79446068
C    5.23536138  -0.18650875   4.31850646
C    4.76109840  -1.36656094   3.47232413
C    4.68143516  -0.99444608   1.99518114
C    4.21094422  -2.04401372   1.15295243
N    3.77109867  -2.85159042   0.46856489
C   -2.54132127   2.49596123  -0.33268647
S   -3.47273588   2.27020317   1.10362493
C   -4.26010595   0.71901653   0.75220267
O   -5.01238305   0.17914727   1.50116314
H    5.62192719  -0.58590517   1.62017504
H    5.44582481  -2.20840681   3.60465680
H    3.77463123  -1.68952209   3.81763150
H    6.22562391   0.12807464   3.98011431
H    4.55428841   0.65763651   4.18759125
H    5.63686601   0.28816355   6.38651896
H    4.31001061  -0.84963114   6.15165281
H    5.97840052  -1.38772721   5.95282023
H    3.88984705  -0.14823586   1.90099091
H   -2.01094747   3.43204910  -0.35681962
H   -2.99362400   2.17318451  -1.25698632
H   -3.96526259   0.33818497  -0.23686165
22
Energy:   -17.5980177444
C    5.60072511  -0.65114460   5.92212640
C    5.54145600  -0.28092068   4.44617218
C    5.06719301  -1.46097287   3.59998985
C    4.98752977  -1.08885801   2.12284686
C    4.51703884  -2.13842565   1.28061815
N    4.07719329  -2.94600235   0.59623061
C   -2.54132127   2.49596123  -0.33268647
S   -3.47273588   2.27020317   1.10362493
C   -4.26010595   0.71901653   0.75220267
O   -5.01238305   0.17914727   1.50116314
H    5.92802181  -0.68031710   1.74784076
H    5.75191943  -2.30281874   3.73232252
H    4.08072585  -1.78393402   3.94529722
H    6.53171853   0.03366271   4.10778003
H    4.86038303   0.56322458   4.31525697
H    5.94296063   0.19375162   6.51418469
H    4.61610523  -0.94404307   6.27931853
H    6.28449514  -1.48213914   6.08048595
H    4.19594167  -0.24264779   2.02865663
H   -2.01094747   3.43204910  -0.35681962
H   -2.99362400   2.17318451  -1.25698632
H   -3.96526259   0.33818497  -0.23686165
22
Energy:   -17.5980177444
C    5.90681973  -0.74555653   6.04979212
C    5.84755062  -0.37533260   4.57383790
C    5.37328763  -1.55538480   3.72765557
C    5.29362439  -1.18326994   2.25051258
C    4.82313346  -2.23283758   1.40828387
N    4.38328791  -3.04041428   0.72389633
C   -2.54132127   2.49596123  -0.33268647
S   -3.47273588   2.27020317   1.10362493
C   -4.26010595   0.71901653   0.75220267
O   -5.01238305   0.17914727   1.50116314
H    6.23411643  -0.77472903   1.87550648
H    6.05801404  -2.39723067   3.85998824
H    4.38682047  -1.87834595   4.07296294
H    6.83781315  -0.06074922   4.23544575
H    5.16647765   0.46881265   4.44292269
H    6.24905524   0.09933969   6.64185041
H    4.92219985  -1.03845500   6.40698426
H    6.59058976  -1.57655107   6.20815167
H    4.50203628  -0.33705972   2.15632235
H   -2.01094747   3.43204910  -0.35681962
H   -2.99362400   2.17318451  -1.25698632
H   -3.96526259   0.33818497  -0.23686165
22
Energy:   -17.5980177444
C    6.21291435  -0.83996846   6.17745784
C    6.15364524  -0.46974453   4.70150362
C    5.67938225  -1.64979673   3.85532129
C    5.59971901  -1.27768187   2.37817830
C    5.12922808  -2.32724951   1.53594959
N    4.68938253  -3.13482621   0.85156205
C   -2.54132127   2.49596123  -0.33268647
S   -3.47273588   2.27020317   1.10362493
C   -4.26010595   0.71901653   0.75220267
O   -5.01238305   0.17914727   1.50116314
H    6.54021105  -0.86914096   2.00317220
H    6.36410866  -2.49164260   3.98765396
H    4.69291509  -1.97275788   4.20062866
H    7.14390777  -0.15516115   4.36311147
H    5.47257226   0.37440072   4.57058841
H    6.55514986   0.00492776   6.76951613
H    5.22829447  -1.13286692   6.53464998
H    6.89668438  -1.67096300   6.33581739
H    4.80813090  -0.43147165   2.28398807
H   -2.01094747   3.43204910  -0.35681962
H   -2.99362400   2.17318451  -1.25698632
H   -3.96526259   0.33818497  -0.23686165
22
Energy:   -17.5980177444
C    6.51900896  -0.93438039   6.30512356
C    6.45973986  -0.56415646   4.82916934
C    5.98547687  -1.74420866   3.98298701
C    5.90581363  -1.37209380   2.50584402
C    5.43532270  -2.42166144   1.66361531
N    4.99547715  -3.22923814   0.97922778
C   -2.54132127   2.49596123  -0.33268647
S   -3.47273588   2.27020317   1.10362493
C   -4.26010595   0.71901653   0.75220267
O   -5.01238305   0.17914727   1.50116314
H    6.84630567  -0.96355289   2.13083792
H    6.67020328  -2.58605453   4.11531968
H    4.99900971  -2.06716981   4.32829438
H    7.45000239  -0.24957308   4.49077719
H    5.77866688   0.27998879   4.69825413
H    6.86124448  -0.08948417   6.89718185
H    5.53438909  -1.22727885   6.66231570
H    7.20277900  -1.76537493   6.46348311
H    5.11422552  -0.52588358   2.41165379
H   -2.01094747   3.43204910  -0.35681962
H   -2.99362400   2.17318451  -1.25698632
H   -3.96526259   0.33818497  -0.23686165
22
Energy:   -17.5980177444
C    6.82510358  -1.02879231   6.43278929
C    6.76583448  -0.65856839   4.95683506
C    6.29157149  -1.83862059   4.11065273
C    6.21190825  -1.46650573   2.63350974
C    5.74141732  -2.51607337   1.79128103
N    5.30157177  -3.32365007   1.10689350
C   -2.54132127   2.49596123  -0.33268647
S   -3.47273588   2.27020317   1.10362493
C   -4.26010595   0.71901653   0.75220267
O   -5.01238305   0.17914727   1.50116314
H    7.15240029  -1.05796482   2.25850364
H    6.97629790  -2.68046646   4.24298541
H    5.30510433  -2.16158174   4.45596010
H    7.75609701  -0.34398501   4.61844291
H    6.08476150   0.18557686   4.82591985
H    7.16733910  -0.18389610   7.02484757
H    5.84048371  -1.32169078   6.78998142
H    7.50887362  -1.85978686   6.59114883
H    5.42032014  -0.62029551   2.53931952
H   -2.01094747   3.43204910  -0.35681962
H   -2.99362400   2.17318451  -1.25698632
H   -3.96526259   0.33818497  -0.23686165
22
Energy:   -17.5980177444
C    7.13119820  -1.12320424   6.56045501
C    7.07192909  -0.75298032   5.08450079
C    6.59766611  -1.93303252   4.23831845
C    6.51800287  -1.56091766   2.76117547
C    6.04751193  -2.61048530   1.91894675
N    5.60766638  -3.41806200   1.23455922
C   -2.54132127   2.49596123  -0.33268647
S   -3.47273588   2.27020317   1.10362493
C   -4.26010595   0.71901653   0.75220267
O   -5.01238305   0.17914727   1.50116314
H    7.45849490  -1.15237675   2.38616936
H    7.28239252  -2.77487839   4.37065113
H    5.61119894  -2.25599367   4.58362582
H    8.06219163  -0.43839694   4.74610863
H    6.39085612   0.09116493   4.95358557
H    7.47343372  -0.27830803   7.15251329
H    6.14657832  -1.41610271   6.91764714
H    7.81496823  -1.95419879   6.71881455
H    5.72641476  -0.71470744   2.66698524
H   -2.01094747   3.43204910  -0.35681962
H   -2.99362400   2.17318451  -1.25698632
H   -3.96526259   0.33818497  -0.23686165
22
Energy:   -17.5980177444
C    7.43729282  -1.21761617   6.68812073
C    7.37802371  -0.84739225   5.21216651
C    6.90376072  -2.02744445   4.36598418
C    6.82409748  -1.65532959   2.88884119
C    6.35360655  -2.70489723   2.04661247
N    5.91376100  -3.51247393   1.36222494
C   -2.54132127   2.49596123  -0.33268647
S   -3.47273588   2.27020317   1.10362493
C   -4.26010595   0.71901653   0.75220267
O   -5.01238305   0.17914727   1.50116314
H    7.76458952  -1.24678868   2.51383508
H    7.58848714  -2.86929032   4.49831685
H    5.91729356  -2.35040560   4.71129155
H    8.36828624  -0.53280887   4.87377435
H    6.69695074  -0.00324700   5.08125129
H    7.77952834  -0.37271996   7.28017901
H    6.45267294  -1.51051464   7.04531286
H    8.12106285  -2.04861072   6.84648027
H    6.03250938  -0.80911937   2.79465096
H   -2.01094747   3.43204910  -0.35681962
H   -2.99362400   2.17318451  -1.25698632
H   -3.96526259   0.33818497  -0.23686165
22
Energy:   -17.5980177444
C    7.74338744  -1.31202810   6.81578645
C    7.68411833  -0.94180418   5.33983223
C    7.20985534  -2.12185638   4.49364990
C    7.13019210  -1.74974152   3.01650691
C    6.65970117  -2.79930916   2.17427819
N    6.21985562  -3.60688586   1.48989066
C   -2.54132127   2.49596123  -0.33268647
S   -3.47273588   2.27020317   1.10362493
C   -4.26010595   0.71901653   0.75220267
O   -5.01238305   0.17914727   1.50116314
H    8.07068414  -1.34120061   2.64150080
H    7.89458176  -2.96370225   4.62598257
H    6.22338818  -2.44481753   4.83895727
H    8.67438086  -0.62722080   5.00144007
H    7.00304536  -0.09765893   5.20891702
H    8.08562296  -0.46713189   7.40784473
H    6.75876756  -1.60492657   7.17297858
H    8.42715747  -2.14302265   6.97414599
H    6.33860400  -0.90353130   2.92231668
H   -2.01094747   3.43204910  -0.35681962
H   -2.99362400   2.17318451  -1.25698632
H   -3.96526259   0.33818497  -0.23686165
22
Energy:   -17.5980177444
C    8.04948206  -1.40644003   6.94345217
C    7.99021295  -1.03621611   5.46749795
C    7.51594996  -2.21626831   4.62131562
C    7.43628672  -1.84415345   3.14417263
C    6.96579579  -2.89372109   2.30194392
N    6.52595024  -3.70129779   1.61755638
C   -2.54132127   2.49596123  -0.33268647
S   -3.47273588   2.27020317   1.10362493
C   -4.26010595   0.71901653   0.75220267
O   -5.01238305   0.17914727   1.50116314
H    8.37677876  -1.43561254   2.76916653
H    8.20067637  -3.05811418   4.75364829
H    6.52948280  -2.53922946   4.96662299
H    8.98047548  -0.72163273   5.12910580
H    7.30913998  -0.19207086   5.33658274
H    8.39171757  -0.56154382   7.53551045
H    7.06486218  -1.69933850   7.30064430
H    8.73325209  -2.23743458   7.10181171
H    6.64469861  -0.99794323   3.04998240
H   -2.01094747   3.43204910  -0.35681962
H   -2.99362400   2.17318451  -1.25698632
H   -3.96526259   0.33818497  -0.23686165
22
Energy:   -17.5980177444
C    8.35557667  -1.50085196   7.07111789
C    8.29630757  -1.13062804   5.59516367
C    7.82204458  -2.31068024   4.74898134
C    7.74238134  -1.93856538   3.27183835
C    7.27189041  -2.98813302   2.42960964
N    6.83204486  -3.79570972   1.74522210
C   -2.54132127   2.49596123  -0.33268647
S   -3.47273588   2.27020317   1.10362493
C   -4.26010595   0.71901653   0.75220267
O   -5.01238305   0.17914727   1.50116314
H    8.68287338  -1.53002447   2.89683225
H    8.50677099  -3.15252611   4.88131401
H    6.83557742  -2.63364138   5.09428871
H    9.28657010  -0.81604466   5.25677152
H    7.61523459  -0.28648279   5.46424846
H    8.69781219  -0.65595575   7.66317617
H    7.37095680  -1.79375043   7.42831002
H    9.03934671  -2.33184651   7.22947743
H    6.95079323  -1.09235516   3.17764812
H   -2.01094747   3.43204910  -0.35681962
H   -2.99362400   2.17318451  -1.25698632
H   -3.96526259   0.33818497  -0.23686165
22
Energy:   -17.5980177444
C    8.66167129  -1.59526389   7.19878361
C    8.60240219  -1.22503997   5.72282939
C    8.12813920  -2.40509217   4.87664706
C    8.04847596  -2.03297731   3.39950407
C    7.57798503  -3.08254495   2.55727536
N    7.13813948  -3.89012165   1.87288782
C   -2.54132127   2.49596123  -0.33268647
S   -3.47273588   2.27020317   1.10362493
C   -4.26010595   0.71901653   0.75220267
O   -5.01238305   0.17914727   1.50116314
H    8.98896800  -1.62443640   3.02449797
H    8.81286561  -3.24693804   5.00897973
H    7.14167204  -2.72805331   5.22195443
H    9.59266472  -0.91045659   5.38443724
H    7.92132921  -0.38089472   5.59191418
H    9.00390681  -0.75036768   7.79084189
H    7.67705142  -1.88816236   7.55597574
H    9.34544133  -2.42625844   7.35714316
H    7.25688785  -1.18676709   3.30531384
H   -2.01094747   3.43204910  -0.35681962
H   -2.99362400   2.17318451  -1.25698632
H   -3.96526259   0.33818497  -0.23686165
22
Energy:   -17.5980177444
C    8.96776591  -1.68967582   7.32644933
C    8.90849680  -1.31945190   5.85049511
C    8.43423382  -2.49950410   5.00431278
C    8.35457058  -2.12738924   3.52716979
C    7.88407964  -3.17695688   2.68494108
N    7.44423409  -3.98453358   2.00055354
C   -2.54132127   2.49596123  -0.33268647
S   -3.47273588   2.27020317   1.10362493
C   -4.26010595   0.71901653   0.75220267
O   -5.01238305   0.17914727   1.50116314
H    9.29506261  -1.71884833   3.15216369
H    9.11896023  -3.34134997   5.13664545
H    7.44776666  -2.82246524   5.34962015
H    9.89875934  -1.00486852   5.51210296
H    8.22742383  -0.47530665   5.71957990
H    9.31000143  -0.84477961   7.91850762
H    7.98314604  -1.98257429   7.68364146
H    9.65153594  -2.52067037   7.48480888
H    7.56298247  -1.28117902   3.43297956
H   -2.01094747   3.43204910  -0.35681962
H   -2.99362400   2.17318451  -1.25698632
H   -3.96526259   0.33818497  -0.23686165
7
Energy:   -17.5980177444
C   -2.57561972   2.46580484  -0.34954884
S   -3.44081721   2.22993314   1.12021585
C   -4.27480128   0.72590150   0.78760198
O   -5.02431982   0.17635652   1.52967718
H   -2.10428774   3.41355372  -0.38704144
H   -2.89673957   2.14332805  -1.21751455
H   -3.93979486   0.45286901  -0.30975350
7
Energy:   -17.5980177444
C   -2.60991818   2.43564844  -0.36641122
S   -3.40889853   2.18966312   1.13680677
C   -4.28949661   0.73278647   0.82300130
O   -5.03625658   0.17356578   1.55819122
H   -2.19762801   3.39505834  -0.41726327
H   -2.79985515   2.11347160  -1.17804277
H   -3.91432714   0.56755304  -0.38264534
7
Energy:   -17.5980177444
C   -2.64421663   2.40549205  -0.38327359
S   -3.37697986   2.14939309   1.15339768
C   -4.30419194   0.73967144   0.85840061
O   -5.04819335   0.17077503   1.58670525
H   -2.29096829   3.37656295  -0.44748509
H   -2.70297072   2.08361514  -1.13857100
H   -3.88885942   0.68223707  -0.45553719
7
Energy:   -17.5980177444
C   -2.67851509   2.37533566  -0.40013597
S   -3.34506118   2.10912307   1.16998860
C   -4.31888727   0.74655641   0.89379993
O   -5.06013012   0.16798428   1.61521929
H   -2.38430856   3.35806757  -0.47770691
H   -2.60608629   2.05375869  -1.09909922
H   -3.86339170   0.79692111  -0.52842903
7
Energy:   -17.5980177444
C   -2.71281354   2.34517927  -0.41699834
S   -3.31314251   2.06885305   1.18657952
C   -4.33358260   0.75344138   0.92919925
O   -5.07206688   0.16519353   1.64373332
H   -2.47764883   3.33957218  -0.50792874
H   -2.50920186   2.02390224  -1.05962745
H   -3.83792397   0.91160514  -0.60132088
7
Energy:   -17.5980177444
C   -2.74711200   2.31502288  -0.43386072
S   -3.28122384   2.02858302   1.20317043
C   -4.34827793   0.76032634   0.96459856
O   -5.08400365   0.16240278   1.67224736
H   -2.57098910   3.32107680  -0.53815056
H   -2.41231743   1.99404578  -1.02015567
H   -3.81245625   1.02628917  -0.67421272
7
Energy:   -17.5980177444
C   -2.78141045   2.28486649  -0.45072309
S   -3.24930516   1.98831300   1.21976135
C   -4.36297326   0.76721131   0.99999788
O   -5.09594042   0.15961203   1.70076139
H   -2.66432937   3.30258141  -0.56837238
H   -2.31543301   1.96418933  -0.98068390
H   -3.78698853   1.14097321  -0.74710456
7
Energy:   -17.5980177444
C   -2.81570891   2.25471010  -0.46758547
S   -3.21738649   1.94804297   1.23635226
C   -4.37766859   0.77409628   1.03539719
O   -5.10787719   0.15682128   1.72927543
H   -2.75766964   3.28408603  -0.59859421
H   -2.21854858   1.93433287  -0.94121212
H   -3.76152080   1.25565724  -0.81999641
7
Energy:   -17.5980177444
C   -2.85000736   2.22455371  -0.48444784
S   -3.18546781   1.90777295   1.25294318
C   -4.39236392   0.78098125   1.07079651
O   -5.11981395   0.15403053   1.75778947
H   -2.85100992   3.26559065  -0.62881603
H   -2.12166415   1.90447642  -0.90174035
H   -3.73605308   1.37034127  -0.89288825
7
Energy:   -17.5980177444
C   -2.88430582   2.19439732  -0.50131022
S   -3.15354914   1.86750293   1.26953410
C   -4.40705925   0.78786622   1.10619582
O   -5.13175072   0.15123978   1.78630350
H   -2.94435019   3.24709526  -0.65903785
H   -2.02477972   1.87461996  -0.86226857
H   -3.71058536   1.48502531  -0.96578010
7
Energy:   -17.5979962851
C   -2.91864360   2.16413657  -0.51754883
S   -3.12055929   1.82799387   1.28711291
C   -4.42048620   0.79585193   1.14108040
O   -5.14383301   0.14858454   1.81198526
H   -3.68603963   1.59871253  -1.03603643
H   -1.92848694   1.84427810  -0.82324239
H   -3.03833169   3.22819059  -0.68971465
7
Energy:   -17.5979766520
C   -2.91877255   2.16399589  -0.51703682
S   -3.11964836   1.82864139   1.28793548
C   -4.41966300   0.79656100   1.14086720
O   -5.14372790   0.14890129   1.80939913
H   -3.68676275   1.59791223  -1.03380035
H   -1.92893647   1.84385860  -0.82362829
H   -3.03886843   3.22787795  -0.69009970
7
Energy:   -17.5979611573
C   -2.91949392   2.16352151  -0.51677362
S   -3.11896286   1.82912509   1.28856329
C   -4.41887636   0.79724649   1.14051725
O   -5.14382858   0.14897252   1.80768727
H   -3.68697329   1.59755988  -1.03197943
H   -1.92899287   1.84348964  -0.82397787
H   -3.03925247   3.22783299  -0.69040063
7
Energy:   -17.5979160613
C   -2.91852395   2.16394890  -0.51545992
S   -3.11704890   1.83048523   1.29034478
C   -4.41649789   0.79931651   1.13960520
O   -5.14412639   0.14918716   1.80248578
H   -3.68917868   1.59535718  -1.02746399
H   -1.93054459   1.84269044  -0.82467608
H   -3.04045779   3.22676232  -0.69119917
7
Energy:   -17.5978634425
C   -2.91946634   2.16323754  -0.51440212
S   -3.11494191   1.83197571   1.29228311
C   -4.41412155   0.80139110   1.13870869
O   -5.14432568   0.14951298   1.79691970
H   -3.69048891   1.59377734  -1.02213467
H   -1.93132725   1.84164238  -0.82563131
H   -3.04170910   3.22621191  -0.69210672
7
Energy:   -17.5978049143
C   -2.91913700   2.16327938  -0.51313721
S   -3.11287681   1.83343638   1.29420376
C   -4.41167204   0.80353281   1.13784452
O   -5.14456039   0.14980684   1.79129287
H   -3.69244951   1.59171741  -1.01713894
H   -1.93268548   1.84070456  -0.82644971
H   -3.04299958   3.22526970  -0.69297736
7
Energy:   -17.5977410647
C   -2.91979617   2.16273225  -0.51201627
S   -3.11075140   1.83493794   1.29616839
C   -4.40924506   0.80565880   1.13700076
O   -5.14475821   0.15013514   1.78558743
H   -3.69390550   1.59002333  -1.01182425
H   -1.93362754   1.83965091  -0.82738825
H   -3.04429542   3.22460863  -0.69389076
7
Energy:   -17.5976723183
C   -2.91951712   2.16274493  -0.51077329
S   -3.10868138   1.83640031   1.29809746
C   -4.40682090   0.80778694   1.13622039
O   -5.14495941   0.15045430   1.77988749
H   -3.69581378   1.58800411  -1.00681820
H   -1.93498141   1.83869113  -0.82821190
H   -3.04560525   3.22366713  -0.69476613
7
Energy:   -17.5975983412
C   -2.92022868   2.16216676  -0.50966030
S   -3.10655839   1.83789482   1.30006671
C   -4.40440109   0.80991539   1.13544749
O   -5.14513833   0.15079415   1.77412788
H   -3.69721545   1.58635215  -1.00150143
H   -1.93591768   1.83761540  -0.82915899
H   -3.04692112   3.22301028  -0.69568468
7
Energy:   -17.5975194549
C   -2.91987859   2.16222294  -0.50842923
S   -3.10449223   1.83935208   1.30200002
C   -4.40198275   0.81204585   1.13473221
O   -5.14533038   0.15111508   1.76838680
H   -3.69912723   1.58433202  -0.99652345
H   -1.93732149   1.83664872  -0.82997373
H   -3.04824821   3.22203038  -0.69655715
7
Energy:   -17.5974463085
C   -2.92079323   2.16154782  -0.50750329
S   -3.10267490   1.84063219   1.30365157
C   -4.40033383   0.81350028   1.13443653
O   -5.14510684   0.15172975   1.76319673
H   -3.70013779   1.58306546  -0.99197217
H   -1.93796449   1.83569184  -0.83082041
H   -3.04936839   3.22158100  -0.69735232
7
Energy:   -17.5973967845
C   -2.92238841   2.16051706  -0.50714231
S   -3.10166677   1.84133817   1.30456547
C   -4.39923464   0.81447333   1.13406279
O   -5.14518945   0.15187758   1.76060630
H   -3.70011609   1.58280173  -0.98922979
H   -1.93782873   1.83506673  -0.83140468
H   -3.04995538   3.22167376  -0.69782113
7
Energy:   -17.5972445396
C   -2.91956675   2.16196722  -0.50483628
S   -3.09821881   1.84376429   1.30787291
C   -4.39489569   0.81831468   1.13289271
O   -5.14563874   0.15231268   1.75070495
H   -3.70448494   1.57852985  -0.98122288
H   -1.94126641   1.83359738  -0.83253733
H   -3.05230940   3.21926285  -0.69923740
7
Energy:   -17.5970523001
C   -2.92193050   2.16023742  -0.50281874
S   -3.09415764   1.84660476   1.31166963
C   -4.39019610   0.82249372   1.13161609
O   -5.14599031   0.15292208   1.73956030
H   -3.70649655   1.57587457  -0.97082679
H   -1.94270063   1.83135920  -0.83449744
H   -3.05490835   3.21825691  -0.70106515
7
Energy:   -17.5968314004
C   -2.92105520   2.16047715  -0.50047451
S   -3.09014170   1.84941650   1.31551125
C   -4.38538665   0.82677736   1.13053169
O   -5.14634121   0.15354861   1.72800866
H   -3.71018802   1.57195229  -0.96102901
H   -1.94563160   1.82938037  -0.83610605
H   -3.05763530   3.21619556  -0.70280455
7
Energy:   -17.5965873236
C   -2.92240445   2.15935896  -0.49829561
S   -3.08602296   1.85228990   1.31942112
C   -4.38059230   0.83106100   1.12949881
O   -5.14661987   0.15424038   1.71627659
H   -3.71271140   1.56888245  -0.95055300
H   -1.94763154   1.82712477  -0.83803265
H   -3.06039678   3.21478956  -0.70467820
7
Energy:   -17.5963220079
C   -2.92182140   2.15942898  -0.49602155
S   -3.08202544   1.85507818   1.32328066
C   -4.37584686   0.83530869   1.12862129
O   -5.14687246   0.15494414   1.70451790
H   -3.71614811   1.56514417  -0.94058112
H   -1.95048000   1.82506132  -0.83971529
H   -3.06318610   3.21278265  -0.70646563
7
Energy:   -17.5960350237
C   -2.92320632   2.15829082  -0.49385979
S   -3.07796800   1.85790078   1.32716791
C   -4.37114819   0.83952540   1.12776996
O   -5.14704119   0.15571843   1.69265886
H   -3.71852348   1.56218551  -0.93003865
H   -1.95249419   1.82275970  -0.84168640
H   -3.06599883   3.21136613  -0.70837521
7
Energy:   -17.5957267145
C   -2.92243393   2.15848631  -0.49163337
S   -3.07404089   1.86063231   1.33100353
C   -4.36649326   0.84371015   1.12701989
O   -5.14720144   0.15648979   1.68081837
H   -3.72192427   1.55847239  -0.92001376
H   -1.95545107   1.82068075  -0.84337748
H   -3.06883400   3.20927633  -0.71018177
7
Energy:   -17.5953988788
C   -2.92396199   2.15726407  -0.48948126
S   -3.07009932   1.86336740   1.33481866
C   -4.36175427   0.84797883   1.12614524
O   -5.14742745   0.15719609   1.66910338
H   -3.72407861   1.55568456  -0.90942308
H   -1.95739211   1.81834152  -0.84540192
H   -3.07166721   3.20791597  -0.71212351
7
Energy:   -17.5950426477
C   -2.92334029   2.15737403  -0.48728796
S   -3.06618254   1.86608578   1.33867593
C   -4.35734205   0.85197285   1.12553649
O   -5.14727394   0.15824471   1.65689974
H   -3.72728503   1.55208632  -0.89899823
H   -1.96036422   1.81617892  -0.84718411
H   -3.07459229   3.20580551  -0.71400560
7
Energy:   -17.5946619419
C   -2.92410515   2.15661824  -0.48499791
S   -3.06223576   1.86882495   1.34249741
C   -4.35276493   0.85612380   1.12469266
O   -5.14725914   0.15916999   1.64481777
H   -3.72976498   1.54901814  -0.88814368
H   -1.96270020   1.81382191  -0.84921776
H   -3.07755064   3.20417006  -0.71601057
7
Energy:   -17.5943056290
C   -2.92385607   2.15657446  -0.48352153
S   -3.05892903   1.87110312   1.34591538
C   -4.34805602   0.86038074   1.12341384
O   -5.14803508   0.15926387   1.63501055
H   -3.73209629   1.54623465  -0.87887886
H   -1.96536405   1.81200014  -0.85071039
H   -3.08004344   3.20219031  -0.71759314
7
Energy:   -17.5941515954
C   -2.92365633   2.15664500  -0.48316342
S   -3.05806560   1.87168651   1.34691722
C   -4.34572062   0.86246478   1.12239513
O   -5.14918224   0.15847274   1.63287624
H   -3.73279913   1.54541592  -0.87627929
H   -1.96621591   1.81151496  -0.85109138
H   -3.08074165   3.20154748  -0.71801779
7
Energy:   -17.5936392727
C   -2.92630207   2.15443101  -0.47708579
S   -3.05319152   1.87519215   1.35026902
C   -4.34157268   0.86625707   1.12253336
O   -5.14733114   0.16126903   1.61625161
H   -3.73597109   1.54147425  -0.86237572
H   -1.96725649   1.80785445  -0.85470496
H   -3.08475485   3.20127122  -0.72125046
7
Energy:   -17.5917928662
C   -2.92431684   2.15502820  -0.47287963
S   -3.03965290   1.88447295   1.36473020
C   -4.32666847   0.88027012   1.11558363
O   -5.14563197   0.16596268   1.57264448
H   -3.74551426   1.52949666  -0.81734011
H   -1.97884096   1.79986152  -0.86107550
H   -3.09575475   3.19265649  -0.72802764
7
Energy:   -17.5896784338
C   -2.92813316   2.15072850  -0.46184411
S   -3.02770983   1.89310351   1.37300115
C   -4.31500842   0.89160949   1.10556514
O   -5.14171978   0.17222364   1.53382074
H   -3.75312883   1.51918061  -0.77221668
H   -1.98503848   1.79195720  -0.86895957
H   -3.10564096   3.18894539  -0.73573003
7
Energy:   -17.5870349470
C   -2.92461851   2.15323255  -0.45955476
S   -3.01576130   1.90192332   1.37945554
C   -4.30535593   0.90172887   1.08853572
O   -5.13622639   0.17974567   1.49711818
H   -3.76595602   1.50426807  -0.71945224
H   -1.99581959   1.78782733  -0.87248722
H   -3.11264262   3.17902231  -0.73997894
7
Energy:   -17.5835891827
C   -2.92985044   2.14804849  -0.45479122
S   -3.00408336   1.91133395   1.37813964
C   -4.29601249   0.91188656   1.06476482
O   -5.13072639   0.18703557   1.46510932
H   -3.78099172   1.48744645  -0.66123952
H   -1.99874380   1.78592006  -0.87525829
H   -3.11597037   3.17607749  -0.74308772
7
Energy:   -17.5794188055
C   -2.93400724   2.14458796  -0.45847501
S   -2.99408903   1.91958496   1.37521163
C   -4.28861153   0.92044414   1.03843609
O   -5.12502262   0.19396888   1.44030539
H   -3.79815610   1.46934350  -0.60580691
H   -2.00178139   1.78841266  -0.87367773
H   -3.11471267   3.17140551  -0.74235636
7
Energy:   -17.5738736571
C   -2.93731546   2.14113642  -0.45646326
S   -2.98449920   1.92761098   1.37145228
C   -4.28584062   0.92527499   1.00922070
O   -5.11497752   0.20428581   1.41862284
H   -3.82761236   1.44182170  -0.55277431
H   -1.99419262   1.79034255  -0.87398757
H   -3.11194146   3.17727641  -0.74243486
7
Energy:   -17.5668870232
C   -2.92561467   2.14952652  -0.45150644
S   -2.97798837   1.93311934   1.36809944
C   -4.28190095   0.93091645   0.98165274
O   -5.10744165   0.21192963   1.40336424
H   -3.86788688   1.40662499  -0.50994934
H   -1.98545638   1.79107328  -0.87506469
H   -3.11009167   3.18455740  -0.74295886
7
Energy:   -17.5590980959
C   -2.90788439   2.16254849  -0.44597178
S   -2.97297722   1.93733015   1.36562172
C   -4.27812049   0.93638450   0.95505137
O   -5.10072723   0.21855093   1.39137757
H   -3.91010486   1.37043655  -0.47222403
H   -1.97732677   1.79097445  -0.87645401
H   -3.10923962   3.19152255  -0.74376375
7
Energy:   -17.5525905849
C   -2.88896752   2.17663299  -0.43982133
S   -2.97085321   1.93912256   1.36410792
C   -4.27224219   0.94350602   0.92990518
O   -5.09639480   0.22267389   1.38425369
H   -3.94790179   1.33850169  -0.44145609
H   -1.97024372   1.78970523  -0.87836558
H   -3.10977585   3.19760514  -0.74498756
7
Energy:   -17.5471685109
C   -2.85746456   2.19917418  -0.42741913
S   -2.96782510   1.94213605   1.35835319
C   -4.27737157   0.94258524   0.89601236
O   -5.08452679   0.23246566   1.37959086
H   -3.98974325   1.30403035  -0.40645550
H   -1.96686624   1.78749948  -0.88007899
H   -3.11258307   3.19985665  -0.74636569
7
Energy:   -17.5445576010
C   -2.84785316   2.20621910  -0.42380080
S   -2.96754279   1.94240021   1.35749769
C   -4.27898854   0.94230789   0.88697505
O   -5.08419934   0.23248108   1.38177710
H   -4.08591578   1.22414678  -0.34138487
H   -1.96971689   1.78090701  -0.88396632
H   -3.12299100   3.19704587  -0.75048031
7
Energy:   -17.5456823647
C   -2.83824198   2.21326351  -0.42018165
S   -2.96726086   1.94266519   1.35664260
C   -4.28060602   0.94202948   0.87793694
O   -5.08387159   0.23249704   1.38396497
H   -4.18208920   1.14426299  -0.27631461
H   -1.97256815   1.77431486  -0.88785242
H   -3.13339818   3.19423666  -0.75459496
7
Energy:   -17.5476858991
C   -2.79871093   2.24254798  -0.39986337
S   -2.96938525   1.94027252   1.34854275
C   -4.29458365   0.93390165   0.85801699
O   -5.07958829   0.23412047   1.40627299
H   -4.20777778   1.12350271  -0.28078584
H   -1.96896033   1.76926672  -0.89321957
H   -3.13903005   3.19965715  -0.75936471
7
Energy:   -17.5501115793
C   -2.75989538   2.27568913  -0.38918075
S   -2.96918312   1.93908841   1.34599720
C   -4.30327205   0.92933633   0.83938177
O   -5.07268758   0.23908408   1.41937782
H   -4.24782218   1.09187582  -0.27989560
H   -1.96539149   1.76886209  -0.89546686
H   -3.13978337   3.19933408  -0.76061478
7
Energy:   -17.5527210128
C   -2.72706957   2.29270581  -0.36172016
S   -2.96756706   1.94026581   1.33127242
C   -4.31381874   0.92341433   0.82352736
O   -5.06667299   0.24290376   1.43320439
H   -4.28255057   1.06533469  -0.28027302
H   -1.95648040   1.76746166  -0.90013618
H   -3.14387732   3.21118397  -0.76627514
7
Energy:   -17.5553110310
C   -2.69402685   2.32616893  -0.36265991
S   -2.96762723   1.93851031   1.32568461
C   -4.32608714   0.91624757   0.81181695
O   -5.06199148   0.24524893   1.44925826
H   -4.31385056   1.04205607  -0.28406021
H   -1.95527811   1.77225786  -0.89764726
H   -3.13917513   3.20277900  -0.76279238
7
Energy:   -17.5564204436
C   -2.68170739   2.33207188  -0.35186786
S   -2.96892454   1.93753097   1.31734684
C   -4.33000153   0.91369347   0.80937751
O   -5.05982939   0.24653669   1.45574766
H   -4.32669244   1.03274197  -0.28623303
H   -1.95054742   1.77257242  -0.89947594
H   -3.14033319   3.20812096  -0.76529635
7
Energy:   -17.5576388278
C   -2.66576882   2.34407085  -0.34594146
S   -2.97081307   1.93553375   1.31009455
C   -4.33358143   0.91191510   0.80394396
O   -5.05922086   0.24620961   1.46641809
H   -4.34361227   1.02047587  -0.28876602
H   -1.94606218   1.77487481  -0.90003271
H   -3.13897787   3.21018870  -0.76611634
7
Energy:   -17.5588835386
C   -2.64712830   2.35856114  -0.34154589
S   -2.97364100   1.93246669   1.30239188
C   -4.34059272   0.90717414   0.80069064
O   -5.05581467   0.24833867   1.47690423
H   -4.36395291   1.00583185  -0.29190049
H   -1.94054299   1.77868346  -0.90020952
H   -3.13636279   3.21221347  -0.76673122
7
Energy:   -17.5599384793
C   -2.63055033   2.37115809  -0.33707154
S   -2.97689866   1.92893131   1.29408503
C   -4.34537007   0.90421377   0.79760477
O   -5.05434553   0.24889774   1.48838847
H   -4.38396151   0.99157298  -0.29499649
H   -1.93370487   1.78321865  -0.90064931
H   -3.13320470   3.21527634  -0.76776291
7
Energy:   -17.5608838330
C   -2.61454160   2.38380774  -0.33494219
S   -2.98035681   1.92477127   1.28615243
C   -4.35221822   0.89963429   0.79508236
O   -5.05162467   0.25068763   1.49942594
H   -4.40499296   0.97661139  -0.29694698
H   -1.92579600   1.78955884  -0.90062222
H   -3.12850535   3.21819775  -0.76854889
7
Energy:   -17.5616944852
C   -2.60066291   2.39397773  -0.33160606
S   -2.98386791   1.92030118   1.27647805
C   -4.35793598   0.89599826   0.79386917
O   -5.05028995   0.25143392   1.51121768
H   -4.42622526   0.96177162  -0.29926910
H   -1.91573143   1.79699474  -0.90100008
H   -3.12332164   3.22279251  -0.77008842
7
Energy:   -17.5623915921
C   -2.58886764   2.40379548  -0.33330037
S   -2.98716569   1.91509148   1.26882317
C   -4.36532287   0.89148547   0.79134318
O   -5.04879531   0.25251311   1.52294039
H   -4.44718323   0.94716969  -0.29895482
H   -1.90462643   1.80685883  -0.90038795
H   -3.11607421   3.22635537  -0.77086398
7
Energy:   -17.5629625864
C   -2.58047073   2.40846642  -0.32974419
S   -2.99004980   1.91011099   1.25729521
C   -4.37083925   0.88824956   0.79294319
O   -5.04885240   0.25255763   1.53435705
H   -4.46706609   0.93394505  -0.30069299
H   -1.89053020   1.81663422  -0.90106216
H   -3.11022775   3.23330718  -0.77349809
7
Energy:   -17.5631435744
C   -2.57840271   2.41087856  -0.33299116
S   -2.99081246   1.90812888   1.25618835
C   -4.37335996   0.88696479   0.79136389
O   -5.04886363   0.25263380   1.53788040
H   -4.47257146   0.93024341  -0.29924441
H   -1.88673755   1.82073935  -0.90028945
H   -3.10728815   3.23367957  -0.77330878
7
Energy:   -17.5632470763
C   -2.57740637   2.41166391  -0.33358519
S   -2.99123422   1.90705391   1.25471153
C   -4.37509272   0.88583504   0.79192962
O   -5.04841637   0.25314577   1.53924216
H   -4.47583759   0.92814069  -0.29900668
H   -1.88410838   1.82293919  -0.90013720
H   -3.10593823   3.23449082  -0.77355547
7
Energy:   -17.5633851189
C   -2.57601249   2.41263340  -0.33432189
S   -2.99181328   1.90546945   1.25242420
C   -4.37729282   0.88451272   0.79245229
O   -5.04814247   0.25355922   1.54162296
H   -4.48062855   0.92508755  -0.29866403
H   -1.88012294   1.82621729  -0.89992744
H   -3.10402395   3.23578905  -0.77398601
7
Energy:   -17.5635258062
C   -2.57465289   2.41350539  -0.33505954
S   -2.99237083   1.90378319   1.24995373
C   -4.37922880   0.88350274   0.79259256
O   -5.04829078   0.25361058   1.54456289
H   -4.48564369   0.92192745  -0.29826550
H   -1.87580026   1.82973707  -0.89970423
H   -3.10204865   3.23720195  -0.77448107
7
Energy:   -17.5636632429
C   -2.57343209   2.41427120  -0.33590155
S   -2.99289667   1.90203571   1.24749714
C   -4.38135200   0.88234004   0.79302613
O   -5.04829410   0.25383509   1.54726044
H   -4.49059813   0.91886039  -0.29785205
H   -1.87136666   1.83334768  -0.89944922
H   -3.10009572   3.23857931  -0.77498127
7
Energy:   -17.5637971636
C   -2.57236441   2.41487481  -0.33680205
S   -2.99334356   1.90026414   1.24505514
C   -4.38320510   0.88146818   0.79312593
O   -5.04862310   0.25379074   1.55022055
H   -4.49543224   0.91592576  -0.29734823
H   -1.86685544   1.83703115  -0.89915471
H   -3.09821347   3.23991553  -0.77549817
7
Energy:   -17.5639295220
C   -2.57138652   2.41540155  -0.33777678
S   -2.99376501   1.89841823   1.24259424
C   -4.38533243   0.88036351   0.79361140
O   -5.04872057   0.25399865   1.55287656
H   -4.50026971   0.91304053  -0.29684719
H   -1.86221214   1.84082224  -0.89883040
H   -3.09634989   3.24122449  -0.77602857
7
Energy:   -17.5640588819
C   -2.57053926   2.41578735  -0.33881250
S   -2.99410200   1.89654132   1.24015476
C   -4.38721425   0.87952748   0.79379221
O   -5.04911203   0.25397182   1.55576323
H   -4.50499323   0.91028980  -0.29626826
H   -1.85750477   1.84468512  -0.89845760
H   -3.09457022   3.24246736  -0.77657179
7
Energy:   -17.5641869529
C   -2.56977178   2.41610019  -0.33990890
S   -2.99440515   1.89459123   1.23769694
C   -4.38933923   0.87848844   0.79432032
O   -5.04929910   0.25417669   1.55836682
H   -4.50971508   0.90759755  -0.29569358
H   -1.85267517   1.84864949  -0.89805180
H   -3.09283145   3.24366591  -0.77713177
7
Energy:   -17.5643124870
C   -2.56911195   2.41628565  -0.34106015
S   -2.99461907   1.89260350   1.23526373
C   -4.39123949   0.87769906   0.79456989
O   -5.04974881   0.25417672   1.56117250
H   -4.51433054   0.90503930  -0.29505180
H   -1.84779163   1.85268544  -0.89759189
H   -3.09119458   3.24478005  -0.77770387
7
Energy:   -17.5644369843
C   -2.56852199   2.41640523  -0.34226019
S   -2.99479098   1.89054142   1.23281725
C   -4.39335291   0.87673576   0.79513129
O   -5.05001589   0.25439105   1.56371470
H   -4.51894004   0.90254704  -0.29441568
H   -1.84279704   1.85681549  -0.89709448
H   -3.08961654   3.24583342  -0.77829327
7
Energy:   -17.5645593711
C   -2.56801457   2.41640878  -0.34350736
S   -2.99486873   1.88843554   1.23039529
C   -4.39526155   0.87600336   0.79543820
O   -5.05052057   0.25443027   1.56643224
H   -4.52345087   0.90018961  -0.29372369
H   -1.83775991   1.86101752  -0.89653732
H   -3.08815901   3.24678300  -0.77889732
7
Energy:   -17.5646809591
C   -2.56756984   2.41635610  -0.34479177
S   -2.99489752   1.88625659   1.22796392
C   -4.39735633   0.87512310   0.79602241
O   -5.05086243   0.25466552   1.56890706
H   -4.52795122   0.89790621  -0.29303961
H   -1.83262180   1.86530560  -0.89594311
H   -3.08677624   3.24765631  -0.77951927
7
Energy:   -17.5648008455
C   -2.56718352   2.41619664  -0.34611473
S   -2.99482867   1.88402780   1.22556028
C   -4.39926420   0.87445455   0.79637407
O   -5.05141457   0.25475361   1.57152879
H   -4.53235861   0.89575942  -0.29231093
H   -1.82745375   1.86966668  -0.89528101
H   -3.08553259   3.24840967  -0.78015763
7
Energy:   -17.5649201607
C   -2.56685306   2.41599141  -0.34746298
S   -2.99470350   1.88172639   1.22315069
C   -4.40132586   0.87366735   0.79696463
O   -5.05182916   0.25501765   1.57393203
H   -4.53675219   0.89369211  -0.29159071
H   -1.82219461   1.87410443  -0.89458189
H   -3.08437678   3.24907059  -0.78081296
7
Energy:   -17.5650382127
C   -2.56655640   2.41568646  -0.34884363
S   -2.99447923   1.87936998   1.22076842
C   -4.40322675   0.87306605   0.79735755
O   -5.05242145   0.25516889   1.57645066
H   -4.54106097   0.89176119  -0.29083546
H   -1.81691777   1.87861721  -0.89381086
H   -3.08337455   3.24960104  -0.78148906
7
Energy:   -17.5651558687
C   -2.56631180   2.41534641  -0.35023589
S   -2.99419277   1.87694473   1.21838775
C   -4.40524729   0.87237436   0.79794725
O   -5.05290188   0.25547172   1.57877588
H   -4.54534647   0.88991672  -0.29009147
H   -1.81156340   1.88319453  -0.89300311
H   -3.08247216   3.25002178  -0.78218038
7
Energy:   -17.5652726796
C   -2.56607736   2.41491160  -0.35165355
S   -2.99380672   1.87446045   1.21603565
C   -4.40713086   0.87184287   0.79837131
O   -5.05352822   0.25569451   1.58118258
H   -4.54955482   0.88820950  -0.28932119
H   -1.80620266   1.88784912  -0.89211904
H   -3.08173535   3.25030168  -0.78289489
7
Energy:   -17.5653892839
C   -2.56589327   2.41445457  -0.35307073
S   -2.99335422   1.87191116   1.21368866
C   -4.40909565   0.87125538   0.79894411
O   -5.05407384   0.25604090   1.58342810
H   -4.55373287   0.88659370  -0.28856326
H   -1.80077905   1.89255399  -0.89120258
H   -3.08110686   3.25046054  -0.78362426
7
Energy:   -17.5655054544
C   -2.56569807   2.41390442  -0.35450661
S   -2.99280333   1.86930025   1.21137193
C   -4.41095508   0.87079170   0.79939748
O   -5.05472546   0.25634618   1.58571148
H   -4.55783901   0.88511290  -0.28778908
H   -1.79536259   1.89733877  -0.89020574
H   -3.08065237   3.25047415  -0.78438061
7
Energy:   -17.5656215817
C   -2.56555204   2.41334388  -0.35593072
S   -2.99218298   1.86663199   1.20906710
C   -4.41284667   0.87031321   0.79993567
O   -5.05533809   0.25673707   1.58788102
H   -4.56190657   0.88372928  -0.28702386
H   -1.78989663   1.90215896  -0.88918089
H   -3.08031202   3.25035421  -0.78514909
7
Energy:   -17.5657376568
C   -2.56537710   2.41269604  -0.35736635
S   -2.99146787   1.86389936   1.20679225
C   -4.41468114   0.86990696   0.80042780
O   -5.05600004   0.25714098   1.59002251
H   -4.56590716   0.88248080  -0.28625450
H   -1.78444988   1.90705835  -0.88807570
H   -3.08014985   3.25008521  -0.78594561
7
Energy:   -17.5658538764
C   -2.56522817   2.41201547  -0.35878703
S   -2.99066204   1.86109904   1.20454305
C   -4.41650827   0.86952057   0.80096201
O   -5.05665222   0.25761770   1.59206096
H   -4.56984651   0.88136601  -0.28549552
H   -1.77898530   1.91200605  -0.88692001
H   -3.08015311   3.24964407  -0.78676300
7
Energy:   -17.5659702553
C   -2.56509496   2.41131211  -0.36018865
S   -2.98978779   1.85826003   1.20231828
C   -4.41826964   0.86920578   0.80143275
O   -5.05735904   0.25808450   1.59410277
H   -4.57373402   0.88034619  -0.28473607
H   -1.77351701   1.91697821  -0.88573482
H   -3.08027344   3.24908155  -0.78759541
7
Energy:   -17.5660870587
C   -2.56493970   2.41055434  -0.36158923
S   -2.98883329   1.85536087   1.20012103
C   -4.42003353   0.86889275   0.80195584
O   -5.05804144   0.25863235   1.59603366
H   -4.57756322   0.87945057  -0.28398765
H   -1.76807064   1.92201137  -0.88448376
H   -3.08055468   3.24836644  -0.78844980
7
Energy:   -17.5662041903
C   -2.56478815   2.40977078  -0.36296578
S   -2.98781078   1.85242706   1.19794941
C   -4.42172230   0.86865503   0.80240697
O   -5.05878095   0.25916829   1.59796964
H   -4.58133665   0.87865503  -0.28324057
H   -1.76263899   1.92706625  -0.88320018
H   -3.08095861   3.24752810  -0.78932065
7
Energy:   -17.5663219623
C   -2.56462388   2.40894892  -0.36433135
S   -2.98671457   1.84943746   1.19580507
C   -4.42341122   0.86841228   0.80291410
O   -5.05949135   0.25978876   1.59979209
H   -4.58505442   0.87797659  -0.28250722
H   -1.75723186   1.93216902  -0.88186319
H   -3.08150915   3.24653752  -0.79021067
7
Energy:   -17.5664402004
C   -2.56445871   2.40810429  -0.36566978
S   -2.98555632   1.84641865   1.19368934
C   -4.42501894   0.86824312   0.80334381
O   -5.06026025   0.26039420   1.60162215
H   -4.58871309   0.87739537  -0.28177610
H   -1.75185183   1.93728719  -0.88049488
H   -3.08217624   3.24542661  -0.79111490
7
Energy:   -17.5665592427
C   -2.56427494   2.40722697  -0.36699337
S   -2.98433108   1.84334974   1.19160023
C   -4.42662840   0.86806209   0.80383208
O   -5.06099435   0.26108466   1.60333808
H   -4.59231861   0.87692600  -0.28106023
H   -1.74650618   1.94244757  -0.87907813
H   -3.08298168   3.24417105  -0.79203861
7
Energy:   -17.5666788525
C   -2.56408833   2.40632920  -0.36828787
S   -2.98304961   1.84025755   1.18953944
C   -4.42815409   0.86795205   0.80423838
O   -5.06178733   0.26175909   1.60506573
H   -4.59586501   0.87655064  -0.28034738
H   -1.74119786   1.94761850  -0.87763461
H   -3.08389406   3.24280217  -0.79297443
7
Energy:   -17.5667993780
C   -2.56388106   2.40540296  -0.36956435
S   -2.98170974   1.83712187   1.18750588
C   -4.42967999   0.86782499   0.80470528
O   -5.06254332   0.26251816   1.60667960
H   -4.59936023   0.87627972  -0.27965129
H   -1.73592963   1.95282466  -0.87614609
H   -3.08493202   3.24129735  -0.79392815
7
Energy:   -17.5669205363
C   -2.56366874   2.40446097  -0.37081185
S   -2.98031841   1.83396772   1.18550116
C   -4.43112015   0.86776666   0.80508689
O   -5.06335674   0.26325741   1.60830927
H   -4.60279672   0.87609534  -0.27895814
H   -1.73070717   1.95803697  -0.87463460
H   -3.08606783   3.23968518  -0.79489268
7
Energy:   -17.5670426727
C   -2.56343532   2.40349292  -0.37203851
S   -2.97887710   1.83077398   1.18352020
C   -4.43256146   0.86768600   0.80552919
O   -5.06413093   0.26408096   1.60982795
H   -4.60618408   0.87600936  -0.27828123
H   -1.72553203   1.96327947  -0.87308437
H   -3.08731558   3.23794599  -0.79587315
7
Energy:   -17.5671654747
C   -2.56319538   2.40251224  -0.37323626
S   -2.97739104   1.82756746   1.18156741
C   -4.43391655   0.86767003   0.80588745
O   -5.06496082   0.26488327   1.61136442
H   -4.60951493   0.87600522  -0.27760714
H   -1.72040601   1.96852451  -0.87151431
H   -3.08865134   3.23610698  -0.79686315
7
Energy:   -17.5672892742
C   -2.56293309   2.40150813  -0.37441242
S   -2.97586103   1.82432675   1.17963893
C   -4.43527215   0.86762821   0.80630437
O   -5.06575091   0.26576588   1.61279361
H   -4.61279974   0.87609134  -0.27695036
H   -1.71533231   1.97379758  -0.86990821
H   -3.09008666   3.23415049  -0.79786710
7
Energy:   -17.5674137447
C   -2.56266430   2.40049462  -0.37555887
S   -2.97429296   1.82107575   1.17773718
C   -4.43654436   0.86764669   0.80663859
O   -5.06659282   0.26662868   1.61424373
H   -4.61602987   0.87625375  -0.27629670
H   -1.71031182   1.97906801  -0.86828537
H   -3.09159925   3.23210191  -0.79887893
7
Energy:   -17.5675391954
C   -2.56237258   2.39946058  -0.37668418
S   -2.97268707   1.81779595   1.17585782
C   -4.43781648   0.86763901   0.80703023
O   -5.06739589   0.26756786   1.61559112
H   -4.61921496   0.87649928  -0.27565903
H   -1.70534745   1.98436368  -0.86663165
H   -3.09320045   3.22994413  -0.79990388
7
Energy:   -17.5676653003
C   -2.56207430   2.39841899  -0.37778103
S   -2.97104903   1.81450668   1.17400290
C   -4.43900675   0.86768663   0.80734049
O   -5.06824843   0.26848551   1.61696020
H   -4.62234982   0.87681492  -0.27502349
H   -1.70043837   1.98965573  -0.86496358
H   -3.09486908   3.22770178  -0.80093544
7
Energy:   -17.5677923386
C   -2.56175452   2.39735883  -0.37885712
S   -2.96937837   1.81119423   1.17216885
C   -4.44019713   0.86770619   0.80770451
O   -5.06906129   0.26947607   1.61823186
H   -4.62544169   0.87720763  -0.27440340
H   -1.69558785   1.99496963  -0.86326740
H   -3.09661521   3.22535714  -0.80197888
7
Energy:   -17.5679199967
C   -2.56142745   2.39629268  -0.37990479
S   -2.96768099   1.80787418   1.17035776
C   -4.44131012   0.86777627   0.80799264
O   -5.06991980   0.27044652   1.61952591
H   -4.62848606   0.87766471  -0.27378612
H   -1.69079293   2.00027937  -0.86155847
H   -3.09841893   3.22293546  -0.80302767
7
Energy:   -17.5680485195
C   -2.56107831   2.39521086  -0.38093215
S   -2.96595611   1.80453336   1.16856767
C   -4.44242068   0.86781891   0.80833078
O   -5.07074153   0.27148501   1.62072961
H   -4.63148966   0.87819415  -0.27318419
H   -1.68605970   2.00560787  -0.85982539
H   -3.10029068   3.22041985  -0.80408666
7
Energy:   -17.5681776138
C   -2.56072254   2.39412336  -0.38193230
S   -2.96420818   1.80118724   1.16679735
C   -4.44345877   0.86790809   0.80859648
O   -5.07160427   0.27250502   1.62195432
H   -4.63444804   0.87878141  -0.27258373
H   -1.68138184   2.01093274  -0.85808041
H   -3.10221235   3.21783188  -0.80515085
7
Energy:   -17.5683074878
C   -2.56034592   2.39302264  -0.38291335
S   -2.96243666   1.79782214   1.16504570
C   -4.44449458   0.86796979   0.80890728
O   -5.07243162   0.27358811   1.62309490
H   -4.63736846   0.87943664  -0.27199725
H   -1.67676609   2.01627395  -0.85631409
H   -3.10419205   3.21515614  -0.80622355
7
Energy:   -17.5684378756
C   -2.55996262   2.39191809  -0.38386842
S   -2.96064661   1.79445385   1.16331271
C   -4.44546170   0.86807293   0.80915234
O   -5.07329587   0.27465328   1.62425431
H   -4.64024565   0.88014551  -0.27141297
H   -1.67220691   2.02161077  -0.85453786
H   -3.10621563   3.21241416  -0.80730088
7
Energy:   -17.5685689466
C   -2.55955952   2.39080144  -0.38480520
S   -2.95883749   1.79106868   1.16159726
C   -4.44642522   0.86815168   0.80943753
O   -5.07412693   0.27577639   1.62533787
H   -4.64308627   0.88091601  -0.27084095
H   -1.66771126   2.02696265  -0.85274148
H   -3.10828922   3.20959150  -0.80838620
7
Energy:   -17.5687004669
C   -2.55914862   2.38968171  -0.38571645
S   -2.95701141   1.78768038   1.15989890
C   -4.44732579   0.86826770   0.80966251
O   -5.07499080   0.27688536   1.62643888
H   -4.64588820   0.88173717  -0.27027176
H   -1.66327084   2.03231139  -0.85093647
H   -3.11040011   3.20670653  -0.80947557
7
Energy:   -17.5688325664
C   -2.55871974   2.38855265  -0.38660937
S   -2.95516964   1.78427804   1.15821653
C   -4.44822045   0.86836127   0.80992099
O   -5.07582361   0.27804576   1.62747029
H   -4.64865420   0.88261521  -0.26971314
H   -1.65889422   2.03767144  -0.84911370
H   -3.11255370   3.20374639  -0.81057239
7
Energy:   -17.5689650469
C   -2.55828335   2.38741997  -0.38747839
S   -2.95331450   1.78087167   1.15654972
C   -4.44905924   0.86848667   0.81012605
O   -5.07668392   0.27919517   1.62851529
H   -4.65138389   0.88354054  -0.26915767
H   -1.65457208   2.04302991  -0.84728234
H   -3.11473855   3.20072683  -0.81167345
7
Energy:   -17.5690979978
C   -2.55782982   2.38627960  -0.38833070
S   -2.95144730   1.77745358   1.15489818
C   -4.44988839   0.86859284   0.81035918
O   -5.07751726   0.28038856   1.62949945
H   -4.65407895   0.88451827  -0.26861228
H   -1.65031418   2.04839728  -0.84543606
H   -3.11696051   3.19763718  -0.81277972
7
Energy:   -17.5692312583
C   -2.55736872   2.38513745  -0.38916035
S   -2.94956846   1.77403288   1.15326019
C   -4.45066758   0.86872615   0.81054767
O   -5.07837145   0.28157538   1.63049206
H   -4.65674018   0.88554130  -0.26806831
H   -1.64611063   2.05376495  -0.84357997
H   -3.11920913   3.19449295  -0.81389084
7
Energy:   -17.5693648796
C   -2.55689108   2.38398794  -0.38997204
S   -2.94767913   1.77060053   1.15163588
C   -4.45143519   0.86884486   0.81075433
O   -5.07920350   0.28280037   1.63143343
H   -4.65936787   0.88661278  -0.26753476
H   -1.64197017   2.05913903  -0.84171020
H   -3.12148806   3.19128308  -0.81500741
7
Energy:   -17.5694987364
C   -2.55640543   2.38283768  -0.39076274
S   -2.94578108   1.76716438   1.15002482
C   -4.45215947   0.86898446   0.81092518
O   -5.08005156   0.28402276   1.63237734
H   -4.66196297   0.88772693  -0.26700339
H   -1.63788541   2.06451400  -0.83983305
H   -3.12379096   3.18801931  -0.81612768
7
Energy:   -17.5696328461
C   -2.55590535   2.38168228  -0.39153708
S   -2.94387429   1.76372120   1.14842622
C   -4.45286817   0.86911505   0.81110668
O   -5.08088049   0.28527475   1.63327957
H   -4.66452707   0.88888568  -0.26647947
H   -1.63386186   2.06989446  -0.83794348
H   -3.12611777   3.18469518  -0.81725323
7
Energy:   -17.5697671149
C   -2.55539778   2.38052508  -0.39229120
S   -2.94195981   1.76027212   1.14683929
C   -4.45354107   0.86926006   0.81126083
O   -5.08171925   0.28652935   1.63417717
H   -4.66706089   0.89008561  -0.26595928
H   -1.62989333   2.07527552  -0.83604532
H   -3.12846488   3.18131990  -0.81838221
7
Energy:   -17.5699015326
C   -2.55487603   2.37936546  -0.39302735
S   -2.94003967   1.75681617   1.14526409
C   -4.45419437   0.86940165   0.81141810
O   -5.08254371   0.28780775   1.63504268
H   -4.66956376   0.89132828  -0.26544529
H   -1.62598542   2.08066176  -0.83413599
H   -3.13083152   3.17788858  -0.81951624
7
Energy:   -17.5700360309
C   -2.55434685   2.37820402  -0.39374573
S   -2.93811290   1.75335543   1.14369976
C   -4.45481783   0.86955296   0.81155437
O   -5.08337248   0.28909243   1.63589888
H   -4.67203783   0.89260899  -0.26493496
H   -1.62213320   2.08604888  -0.83221927
H   -3.13321517   3.17440648  -0.82065380
7
Energy:   -17.5701705797
C   -2.55380456   2.37704127  -0.39444694
S   -2.93618131   1.74988946   1.14214555
C   -4.45541903   0.86970521   0.81168751
O   -5.08419304   0.29039250   1.63673181
H   -4.67448176   0.89392901  -0.26442956
H   -1.61833994   2.09143977  -0.83029183
H   -3.13561524   3.17087326  -0.82179613
7
Energy:   -17.5703051286
C   -2.55325462   2.37587721  -0.39513120
S   -2.93424450   1.74641742   1.14060104
C   -4.45599428   0.86986528   0.81180469
O   -5.08501245   0.29170068   1.63755198
H   -4.67689979   0.89528590  -0.26392813
H   -1.61460147   2.09683175  -0.82835662
H   -3.13802896   3.16729147  -0.82294334
7
Energy:   -17.5704396452
C   -2.55269659   2.37471289  -0.39580019
S   -2.93230571   1.74294083   1.13906508
C   -4.45655169   0.87002702   0.81191560
O   -5.08582691   0.29302020   1.63835637
H   -4.67929422   0.89667310  -0.26342930
H   -1.61090882   2.10222569  -0.82641433
H   -3.14045295   3.16366978  -0.82409274
7
Energy:   -17.5705740754
C   -2.55211929   2.37354740  -0.39645872
S   -2.93036546   1.73945861   1.13753689
C   -4.45710600   0.87017252   0.81204985
O   -5.08661287   0.29437119   1.63911430
H   -4.68166132   0.89809705  -0.26293775
H   -1.60728526   2.10762502  -0.82445939
H   -3.14288676   3.15999771  -0.82524713
7
Energy:   -17.5707083535
C   -2.55154224   2.37238326  -0.39709111
S   -2.92841718   1.73597472   1.13601705
C   -4.45759977   0.87035743   0.81211248
O   -5.08743233   0.29569729   1.63990816
H   -4.68399583   0.89956185  -0.26244468
H   -1.60371992   2.11302321  -0.82249779
H   -3.14532812   3.15627167  -0.82640448
7
Energy:   -17.5708424732
C   -2.55095170   2.37121881  -0.39771043
S   -2.92647505   1.73248055   1.13450729
C   -4.45812248   0.87049652   0.81225482
O   -5.08818893   0.29708548   1.64060892
H   -4.68631085   0.90105868  -0.26196392
H   -1.60020588   2.11842338  -0.82052936
H   -3.14778229   3.15250556  -0.82756845
7
Energy:   -17.5709763406
C   -2.55035354   2.37005628  -0.39831202
S   -2.92452296   1.72898704   1.13300784
C   -4.45856629   0.87069799   0.81228435
O   -5.08900320   0.29842206   1.64138171
H   -4.68859092   0.90259280  -0.26147719
H   -1.59675824   2.12382314  -0.81855116
H   -3.15024052   3.14868958  -0.82873553
7
Energy:   -17.5711100159
C   -2.54975135   2.36889479  -0.39889740
S   -2.92257627   1.72548343   1.13151396
C   -4.45905515   0.87084136   0.81241787
O   -5.08974197   0.29983353   1.64204496
H   -4.69085478   0.90415538  -0.26100345
H   -1.59334863   2.12922496  -0.81656857
H   -3.15270724   3.14483599  -0.82990774
7
Energy:   -17.5712433183
C   -2.54913208   2.36773388  -0.39946819
S   -2.92062256   1.72198250   1.13003087
C   -4.45945310   0.87105698   0.81242017
O   -5.09054979   0.30117999   1.64279663
H   -4.69308377   0.90575661  -0.26052171
H   -1.59001793   2.13462464  -0.81457460
H   -3.15517637   3.14093431  -0.83108272
7
Energy:   -17.5713763863
C   -2.54851561   2.36657598  -0.40002095
S   -2.91867378   1.71846929   1.12855089
C   -4.45990744   0.87120617   0.81254239
O   -5.09126957   0.30261044   1.64342484
H   -4.69529775   0.90738553  -0.26005495
H   -1.58671844   2.14002760  -0.81257728
H   -3.15765174   3.13699329  -0.83226452
7
Energy:   -17.5715089872
C   -2.54788012   2.36541961  -0.40056163
S   -2.91671935   1.71496074   1.12708377
C   -4.46026590   0.87143390   0.81252052
O   -5.09206607   0.30396891   1.64415319
H   -4.69747714   0.90905073  -0.25957813
H   -1.58350078   2.14542725  -0.81056888
H   -3.16012730   3.13300889  -0.83344919
7
Energy:   -17.5716412903
C   -2.54724954   2.36426666  -0.40108218
S   -2.91477104   1.71143913   1.12561777
C   -4.46069027   0.87158549   0.81263896
O   -5.09276297   0.30542021   1.64474131
H   -4.69964309   0.91074369  -0.25911788
H   -1.58030976   2.15082994  -0.80855726
H   -3.16260804   3.12898401  -0.83463989
7
Energy:   -17.5717730210
C   -2.54659805   2.36311432  -0.40159193
S   -2.91281762   1.70792435   1.12416463
C   -4.46100865   0.87182824   0.81259247
O   -5.09354774   0.30678480   1.64544884
H   -4.70177294   0.91247102  -0.25864472
H   -1.57720370   2.15622760  -0.80653405
H   -3.16508600   3.12491880  -0.83583439
7
Energy:   -17.5719044266
C   -2.54595524   2.36196906  -0.40208270
S   -2.91087084   1.70439547   1.12271181
C   -4.46140129   0.87198818   0.81269681
O   -5.09422650   0.30824796   1.64600812
H   -4.70389160   0.91422645  -0.25819094
H   -1.57412234   2.16162925  -0.80451014
H   -3.16756786   3.12081252  -0.83703495
7
Energy:   -17.5720351755
C   -2.54528920   2.36082270  -0.40256189
S   -2.90891916   1.70087290   1.12127268
C   -4.46168482   0.87224282   0.81263201
O   -5.09499663   0.30962169   1.64669144
H   -4.70597522   0.91601553  -0.25772136
H   -1.57112510   2.16702424  -0.80247302
H   -3.17004546   3.11666903  -0.83823940
7
Energy:   -17.5721655350
C   -2.54463312   2.35968402  -0.40302207
S   -2.90697443   1.69733569   1.11983225
C   -4.46205262   0.87240756   0.81273270
O   -5.09565047   0.31110162   1.64721348
H   -4.70804853   0.91783249  -0.25727153
H   -1.56815204   2.17242427  -0.80043440
H   -3.17252456   3.11248461  -0.83945038
7
Energy:   -17.5722951368
C   -2.54395501   2.35854669  -0.40347190
S   -2.90502639   1.69380808   1.11840470
C   -4.46229997   0.87267718   0.81264463
O   -5.09640749   0.31247767   1.64787759
H   -4.71008408   0.91968055  -0.25680555
H   -1.56526428   2.17781365  -0.79838535
H   -3.17499704   3.10826634  -0.84066494
7
Energy:   -17.5724243334
C   -2.54328850   2.35741525  -0.40390304
S   -2.90308552   1.69026532   1.11697669
C   -4.46263770   0.87285170   0.81273167
O   -5.09704097   0.31396401   1.64837404
H   -4.71211339   0.92155780  -0.25635839
H   -1.56239876   2.18321041  -0.79633285
H   -3.17747137   3.10400474  -0.84188641
7
Energy:   -17.5725526985
C   -2.54259834   2.35628696  -0.40432349
S   -2.90114096   1.68673132   1.11556115
C   -4.46285560   0.87313324   0.81262749
O   -5.09778078   0.31534478   1.64901309
H   -4.71410455   0.92346531  -0.25589550
H   -1.55961884   2.18859598  -0.79427154
H   -3.17993700   3.09971212  -0.84311277
7
Energy:   -17.5726805935
C   -2.54192066   2.35516434  -0.40472565
S   -2.89920604   1.68318202   1.11414318
C   -4.46317013   0.87331399   0.81271132
O   -5.09838763   0.31684140   1.64947474
H   -4.71608926   0.92540252  -0.25545226
H   -1.55685898   2.19398854  -0.79220643
H   -3.18240358   3.09537639  -0.84434566
7
Energy:   -17.5728075611
C   -2.54122061   2.35404547  -0.40511707
S   -2.89726701   1.67964390   1.11274050
C   -4.46335673   0.87361161   0.81258686
O   -5.09911071   0.31822216   1.65009532
H   -4.71803648   0.92736845  -0.25499079
H   -1.55418731   2.19936605  -0.79013200
H   -3.18485802   3.09101187  -0.84558234
7
Energy:   -17.5729340515
C   -2.54053343   2.35293309  -0.40548978
S   -2.89533731   1.67608963   1.11133254
C   -4.46364370   0.87380520   0.81265587
O   -5.09969764   0.31972095   1.65053226
H   -4.71997813   0.92936386  -0.25454936
H   -1.55153274   2.20475359  -0.78805469
H   -3.18731222   3.08660362  -0.84682803
7
Energy:   -17.5730595497
C   -2.53982432   2.35182526  -0.40585380
S   -2.89340477   1.67254714   1.10993990
C   -4.46380317   0.87411463   0.81251824
O   -5.10040047   0.32110119   1.65112894
H   -4.72188269   0.93138881  -0.25408929
H   -1.54896619   2.21012474  -0.78596764
H   -3.18975466   3.08216741  -0.84807710
7
Energy:   -17.5731845077
C   -2.53912870   2.35072425  -0.40619787
S   -2.89148140   1.66898715   1.10854238
C   -4.46407078   0.87431627   0.81258413
O   -5.10095983   0.32260542   1.65153437
H   -4.72378258   0.93344302  -0.25364963
H   -1.54641636   2.21550510  -0.78387813
H   -3.19219574   3.07768821  -0.84933563
7
Energy:   -17.5733083839
C   -2.53841115   2.34962778  -0.40653324
S   -2.88955650   1.66544277   1.10716102
C   -4.46420234   0.87464277   0.81242836
O   -5.10164425   0.32398101   1.65211135
H   -4.72564453   0.93552514  -0.25318972
H   -1.54395670   2.22086622  -0.78178002
H   -3.19462157   3.07318515  -0.85059768
7
Energy:   -17.5734317186
C   -2.53770925   2.34853851  -0.40684901
S   -2.88763978   1.66187976   1.10577313
C   -4.46444464   0.87485900   0.81248111
O   -5.10218244   0.32548173   1.65249248
H   -4.72750236   0.93763868  -0.25275022
H   -1.54151055   2.22623827  -0.77967751
H   -3.19704622   3.06863536  -0.85186915
7
Energy:   -17.5735539142
C   -2.53698460   2.34745399  -0.40715815
S   -2.88572355   1.65833139   1.10440145
C   -4.46455357   0.87519757   0.81231475
O   -5.10284351   0.32685343   1.65304551
H   -4.72932389   0.93977835  -0.25229080
H   -1.53915488   2.23159054  -0.77756803
H   -3.19945446   3.06406431  -0.85314583
7
Energy:   -17.5736755096
C   -2.53627621   2.34637697  -0.40744645
S   -2.88381528   1.65476490   1.10302242
C   -4.46477668   0.87542318   0.81236398
O   -5.10335334   0.32835288   1.65339721
H   -4.73114167   0.94195026  -0.25185139
H   -1.53681180   2.23695397  -0.77545377
H   -3.20186001   3.05944644  -0.85443279
7
Energy:   -17.5737958836
C   -2.53554562   2.34530687  -0.40772812
S   -2.88190752   1.65121628   1.10166040
C   -4.46485980   0.87577923   0.81218157
O   -5.10399381   0.32971631   1.65393008
H   -4.73292180   0.94414772  -0.25138964
H   -1.53456015   2.24229233  -0.77333246
H   -3.20424699   3.05481014  -0.85572383
7
Energy:   -17.5737958836
C   -2.57827143   2.33239376  -0.41718039
S   -2.87573354   1.59765642   1.08575148
C   -4.46181349   0.86676307   0.84959261
O   -5.10363515   0.31406789   1.68306880
H   -4.67209825   1.07040274  -0.29315164
H   -1.62602304   2.32480996  -0.72645406
H   -3.14046078   2.93717504  -0.90202879
7
Energy:   -17.5737958836
C   -2.62099724   2.31948065  -0.42663265
S   -2.86955956   1.54409657   1.06984256
C   -4.45876718   0.85774690   0.88700364
O   -5.10327649   0.29841947   1.71220751
H   -4.61127470   1.19665776  -0.33491364
H   -1.71748594   2.40732760  -0.67957566
H   -3.07667457   2.81953994  -0.94833375
7
Energy:   -17.5737958836
C   -2.66372306   2.30656754  -0.43608492
S   -2.86338559   1.49053671   1.05393363
C   -4.45572087   0.84873073   0.92441468
O   -5.10291783   0.28277105   1.74134623
H   -4.55045114   1.32291278  -0.37667564
H   -1.80894884   2.48984524  -0.63269726
H   -3.01288836   2.70190484  -0.99463871
7
Energy:   -17.5737958836
C   -2.70644887   2.29365443  -0.44553719
S   -2.85721161   1.43697685   1.03802471
C   -4.45267456   0.83971457   0.96182571
O   -5.10255917   0.26712263   1.77048494
H   -4.48962759   1.44916779  -0.41843764
H   -1.90041174   2.57236288  -0.58581887
H   -2.94910214   2.58426974  -1.04094367
7
Energy:   -17.5737958836
C   -2.74917468   2.28074132  -0.45498945
S   -2.85103763   1.38341700   1.02211579
C   -4.44962825   0.83069840   0.99923674
O   -5.10220051   0.25147421   1.79962366
H   -4.42880404   1.57542281  -0.46019963
H   -1.99187464   2.65488051  -0.53894047
H   -2.88531593   2.46663463  -1.08724863
7
Energy:   -17.5737958836
C   -2.79190050   2.26782821  -0.46444172
S   -2.84486365   1.32985714   1.00620687
C   -4.44658194   0.82168223   1.03664778
O   -5.10184185   0.23582579   1.82876237
H   -4.36798049   1.70167783  -0.50196163
H   -2.08333753   2.73739815  -0.49206207
H   -2.82152972   2.34899953  -1.13355359
7
Energy:   -17.5737958836
C   -2.83462631   2.25491510  -0.47389398
S   -2.83868968   1.27629729   0.99029795
C   -4.44353563   0.81266607   1.07405881
O   -5.10148319   0.22017736   1.85790109
H   -4.30715694   1.82793285  -0.54372363
H   -2.17480043   2.81991579  -0.44518368
H   -2.75774351   2.23136443  -1.17985855
7
Energy:   -17.5737958836
C   -2.87735212   2.24200199  -0.48334625
S   -2.83251570   1.22273743   0.97438903
C   -4.44048932   0.80364990   1.11146985
O   -5.10112453   0.20452894   1.88703980
H   -4.24633338   1.95418787  -0.58548563
H   -2.26626333   2.90243343  -0.39830528
H   -2.69395729   2.11372933  -1.22616351
7
Energy:   -17.5737958836
C   -2.92007794   2.22908888  -0.49279852
S   -2.82634172   1.16917757   0.95848010
C   -4.43744301   0.79463373   1.14888088
O   -5.10076587   0.18888052   1.91617852
H   -4.18550983   2.08044289  -0.62724763
H   -2.35772623   2.98495107  -0.35142688
H   -2.63017108   1.99609423  -1.27246847
7
Energy:   -17.5737958836
C   -2.96280375   2.21617577  -0.50225078
S   -2.82016775   1.11561772   0.94257118
C   -4.43439670   0.78561757   1.18629192
O   -5.10040721   0.17323210   1.94531723
H   -4.12468628   2.20669791  -0.66900962
H   -2.44918913   3.06746870  -0.30454849
H   -2.56638487   1.87845913  -1.31877343
7
Energy:   -17.5722843023
C   -2.99567212   2.20501944  -0.51346210
S   -2.79984322   1.07151835   0.91526799
C   -4.48942167   0.77766072   1.21875962
O   -5.08865517   0.13709311   2.00167626
H   -4.05482448   2.33236009  -0.70964564
H   -2.49575009   1.76512326  -1.37033725
H   -2.53386893   3.15449393  -0.26266086
7
Energy:   -17.5685869666
C   -2.98539918   2.20883035  -0.51779936
S   -2.78445530   1.08113040   0.90519423
C   -4.54372556   0.77297993   1.22340589
O   -5.08419376   0.11590941   2.02661146
H   -4.04525907   2.33413546  -0.71070560
H   -2.48889864   1.76981142  -1.37737903
H   -2.52610417   3.16047191  -0.26972958
7
Energy:   -17.5637217712
C   -2.97464618   2.21384586  -0.52351874
S   -2.76833083   1.09063767   0.89547602
C   -4.59564072   0.76334365   1.23269305
O   -5.08447725   0.09551227   2.05141736
H   -4.03524711   2.33694917  -0.71279364
H   -2.48177150   1.77540913  -1.38569156
H   -2.51792208   3.16757115  -0.27798448
7
Energy:   -17.5583767728
C   -2.96335529   2.21972879  -0.53015321
S   -2.75188530   1.10108873   0.88617000
C   -4.64581174   0.75035870   1.24550088
O   -5.08845420   0.07463859   2.07587895
H   -4.02481019   2.34091383  -0.71523049
H   -2.47485640   1.78106792  -1.39489246
H   -2.50886255   3.17547234  -0.28767566
7
Energy:   -17.5529999914
C   -2.95157706   2.22623776  -0.53725127
S   -2.73501623   1.11326490   0.87786404
C   -4.69441456   0.73456718   1.26017519
O   -5.09542572   0.05311966   2.09963235
H   -4.01411668   2.34604607  -0.71691639
H   -2.46891438   1.78606026  -1.40468392
H   -2.49857105   3.18397306  -0.29922198
7
Energy:   -17.5478732657
C   -2.93929034   2.23395044  -0.54437225
S   -2.71873698   1.13335976   0.87527655
C   -4.74200604   0.71306389   1.27379360
O   -5.10451961   0.02758106   2.12130147
H   -4.00308358   2.35713323  -0.71501590
H   -2.46811892   1.78558354  -1.41410689
H   -2.48228021   3.19259697  -0.31727857
7
Energy:   -17.5438641886
C   -2.97213208   2.29478330  -0.51019086
S   -2.89273335   1.67836377   1.18298906
C   -4.66032286   0.40970474   1.10540793
O   -5.01880998  -0.21088553   1.99774072
H   -3.89902514   2.83971528  -0.65852078
H   -2.88934418   1.46610157  -1.20623816
H   -2.12566807   2.96548575  -0.63158989
7
Energy:   -17.5399083960
C   -2.96378352   2.30110570  -0.51044436
S   -2.86968625   1.69507397   1.18252443
C   -4.69676074   0.38511545   1.09862973
O   -5.02324070  -0.21881105   2.01102827
H   -3.89576487   2.83911771  -0.65319868
H   -2.88658928   1.46671306  -1.20055810
H   -2.12221032   2.97495405  -0.64838328
7
Energy:   -17.5368848623
C   -2.95522783   2.30700846  -0.50947618
S   -2.84434275   1.71312364   1.18404638
C   -4.73156442   0.36308275   1.08972239
O   -5.02750534  -0.22550487   2.01990145
H   -3.89363219   2.83599881  -0.64505229
H   -2.88571942   1.46527854  -1.19173252
H   -2.12004373   2.98428155  -0.66781122
7
Energy:   -17.5345671350
C   -2.94685425   2.31288904  -0.50878098
S   -2.81681286   1.73264708   1.18585704
C   -4.76384325   0.34193748   1.08322576
O   -5.03531009  -0.23394831   2.02667896
H   -3.89164863   2.83270904  -0.63656177
H   -2.88491848   1.46359017  -1.18260044
H   -2.11864811   2.99344440  -0.68822057
7
Energy:   -17.5327406409
C   -2.93847247   2.31904009  -0.50875149
S   -2.78815061   1.75315346   1.18728488
C   -4.79445567   0.32078200   1.07983827
O   -5.04660015  -0.24476632   2.03298293
H   -3.88925460   2.83009759  -0.62864219
H   -2.88357404   1.46240589  -1.17411176
H   -2.11752813   3.00255618  -0.70900263
7
Energy:   -17.5312728290
C   -2.93148287   2.32353241  -0.50712826
S   -2.75578486   1.77548037   1.19097456
C   -4.82234626   0.30334075   1.07214911
O   -5.05697086  -0.25274214   2.03386064
H   -3.88860466   2.82510786  -0.61718946
H   -2.88370304   1.45847528  -1.16223648
H   -2.11914312   3.01007435  -0.73083211
7
Energy:   -17.5300689698
C   -2.92442989   2.32866788  -0.50700163
S   -2.72287684   1.79888166   1.19297077
C   -4.84858150   0.28483847   1.07017071
O   -5.07267239  -0.26530470   2.03641205
H   -3.88683048   2.82209888  -0.60858612
H   -2.88269279   1.45650452  -1.15321946
H   -2.11995178   3.01758217  -0.75114831
7
Energy:   -17.5290606022
C   -2.91800321   2.33276205  -0.50541763
S   -2.68986910   1.82183688   1.19626824
C   -4.87570265   0.26783557   1.06280118
O   -5.08347406  -0.27325921   2.03644180
H   -3.88590021   2.81760175  -0.59665275
H   -2.88212768   1.45250379  -1.14108781
H   -2.12295876   3.02398806  -0.77275502
7
Energy:   -17.5282102482
C   -2.91173265   2.33746587  -0.50565147
S   -2.65506074   1.84691766   1.19755686
C   -4.89967253   0.25029002   1.06260026
O   -5.10218967  -0.28766616   2.03806117
H   -3.88397695   2.81519078  -0.58830330
H   -2.88063332   1.45067562  -1.13250646
H   -2.12476981   3.03039509  -0.79215904
7
Energy:   -17.5274830518
C   -2.90641425   2.34046380  -0.50336195
S   -2.62117547   1.87052057   1.20084811
C   -4.92621540   0.23457459   1.05306846
O   -5.11094196  -0.29338481   2.03626312
H   -3.88345417   2.81024648  -0.57513386
H   -2.88017692   1.44582130  -1.11930055
H   -2.12965751   3.03502696  -0.81278531
7
Energy:   -17.5268703919
C   -2.90068426   2.34454973  -0.50304402
S   -2.58363745   1.89779926   1.20166078
C   -4.94739889   0.21909924   1.05281278
O   -5.13216333  -0.30862181   2.03534353
H   -3.88188735   2.80703637  -0.56525431
H   -2.87897692   1.44310742  -1.10922384
H   -2.13328748   3.04029868  -0.83269691
7
Energy:   -17.5263494879
C   -2.89666426   2.34619637  -0.49975991
S   -2.54901993   1.92200122   1.20480057
C   -4.97360771   0.20486307   1.04018735
O   -5.13772930  -0.31120222   2.03155107
H   -3.88196059   2.80135888  -0.55057345
H   -2.87885042   1.43715773  -1.09465087
H   -2.14020346   3.04289383  -0.85195675
7
Energy:   -17.5259208985
C   -2.89197329   2.34879292  -0.49762169
S   -2.50670310   1.95278378   1.20563659
C   -4.99045029   0.19378186   1.03691667
O   -5.16065158  -0.32547675   2.02508245
H   -3.88168217   2.79554377  -0.53631337
H   -2.87886127   1.43173376  -1.08023445
H   -2.14771397   3.04610955  -0.87386821
7
Energy:   -17.5255633413
C   -2.88901207   2.34929627  -0.49342348
S   -2.47211729   1.97726884   1.20801031
C   -5.01694429   0.18049862   1.02137488
O   -5.16265312  -0.32491629   2.01998576
H   -3.88210906   2.78930177  -0.52042480
H   -2.87893634   1.42501089  -1.06453700
H   -2.15626349   3.04680879  -0.89138767
7
Energy:   -17.5252788724
C   -2.88633890   2.34884625  -0.48736661
S   -2.42104914   2.01431843   1.20926954
C   -5.02606308   0.17794012   1.01097126
O   -5.18669676  -0.33567103   2.00262393
H   -3.88459860   2.77783291  -0.49735222
H   -2.88180743   1.41405487  -1.04125830
H   -2.17148176   3.04594733  -0.91728959
7
Energy:   -17.5250439214
C   -2.88444888   2.34781817  -0.48130340
S   -2.38593853   2.03960005   1.21061126
C   -5.05218695   0.16605074   0.99261873
O   -5.18550896  -0.33209359   1.99584340
H   -3.88542213   2.77066726  -0.48093690
H   -2.88264241   1.40690517  -1.02483651
H   -2.18188781   3.04432110  -0.93239857
7
Energy:   -17.5248512395
C   -2.88237044   2.34696879  -0.47534227
S   -2.35075219   2.06528457   1.21108318
C   -5.07809874   0.15442648   0.97399217
O   -5.18427863  -0.32800934   1.98787110
H   -3.88614653   2.76303648  -0.46293611
H   -2.88329697   1.39917891  -1.00687434
H   -2.19309217   3.04238300  -0.94819572
7
Energy:   -17.5246948197
C   -2.87855422   2.34817451  -0.47132936
S   -2.31597628   2.09134317   1.20985945
C   -5.10368197   0.14151229   0.95920577
O   -5.18826088  -0.32807613   1.98069664
H   -3.88532979   2.75629565  -0.44404391
H   -2.88231286   1.39221097  -0.98807275
H   -2.20391968   3.04180842  -0.96671783
7
Energy:   -17.5245867227
C   -2.88198587   2.33898796  -0.45462031
S   -2.23628546   2.15154043   1.20584210
C   -5.08549872   0.16572069   0.93202922
O   -5.22415126  -0.33513244   1.93222259
H   -3.89438958   2.72912069  -0.39460106
H   -2.89205778   1.36597122  -0.93825742
H   -2.24366700   3.02706035  -1.00301712
7
Energy:   -17.5244802255
C   -2.87920905   2.33872612  -0.44884596
S   -2.20364908   2.17693377   1.20234372
C   -5.11323417   0.15235732   0.91440061
O   -5.22351135  -0.33221345   1.92608403
H   -3.89282230   2.72366958  -0.37644588
H   -2.88993968   1.35977032  -0.92040258
H   -2.25567004   3.02402521  -1.01753594
7
Energy:   -17.5243839810
C   -2.87533690   2.33971479  -0.44418622
S   -2.17166004   2.20234173   1.19761319
C   -5.14102744   0.13748465   0.90045070
O   -5.22630267  -0.33238438   1.92136696
H   -3.89026407   2.71898157  -0.36007997
H   -2.88741717   1.35513180  -0.90401757
H   -2.26602739   3.02199871  -1.03154908
7
Energy:   -17.5242943842
C   -2.87165993   2.34039480  -0.43911221
S   -2.13889186   2.22871212   1.19190576
C   -5.16795456   0.12335012   0.88624694
O   -5.22959941  -0.33236019   1.91522878
H   -3.88765481   2.71395810  -0.34248645
H   -2.88474268   1.35002067  -0.88645951
H   -2.27753243   3.01919327  -1.04572530
7
Energy:   -17.5242089916
C   -2.86806029   2.34086904  -0.43366518
S   -2.10544305   2.25596698   1.18523624
C   -5.19410233   0.10983908   0.87191644
O   -5.23350540  -0.33230265   1.90788355
H   -3.88490276   2.70862842  -0.32387490
H   -2.88193036   1.34460925  -0.86788123
H   -2.29009149   3.01565875  -1.06001691
7
Energy:   -17.5241753122
C   -2.86961959   2.33155077  -0.41317602
S   -2.00558065   2.34113666   1.15579534
C   -5.15166327   0.14849915   0.85322850
O   -5.30980194  -0.36322768   1.84475961
H   -3.88726660   2.67928999  -0.25655895
H   -2.88494252   1.31615742  -0.80021418
H   -2.34916111   2.98986258  -1.10423628
7
Energy:   -17.5241133807
C   -2.86374424   2.33421528  -0.40902521
S   -1.96748058   2.37472606   1.14181818
C   -5.17127071   0.13649181   0.84718585
O   -5.33306790  -0.37728136   1.83710319
H   -3.88077937   2.67619103  -0.23655029
H   -2.87835925   1.31292794  -0.78025834
H   -2.36333362   2.98599813  -1.12067537
7
Energy:   -17.5240528714
C   -2.85792528   2.33655928  -0.40417427
S   -1.92886895   2.40937940   1.12611594
C   -5.19018366   0.12523550   0.84054055
O   -5.35671023  -0.39115752   1.82830784
H   -3.87402754   2.67272444  -0.21538538
H   -2.87159855   1.30944984  -0.75909865
H   -2.37872147   2.98107796  -1.13670804
7
Energy:   -17.5239952872
C   -2.85178662   2.33890707  -0.39874351
S   -1.88756389   2.44715146   1.10755992
C   -5.20583050   0.11590402   0.83509071
O   -5.38551125  -0.40771882   1.81673389
H   -3.86647661   2.66873105  -0.19175437
H   -2.86415218   1.30559883  -0.73541144
H   -2.39671463   2.97469527  -1.15387719
7
Energy:   -17.5239395288
C   -2.84573030   2.34100954  -0.39284945
S   -1.84593569   2.48596844   1.08697972
C   -5.22083158   0.10711023   0.82948337
O   -5.41516054  -0.42445896   1.80404436
H   -3.85835335   2.66479625  -0.16694797
H   -2.85604130   1.30168104  -0.71059887
H   -2.41598291   2.96716235  -1.17051315
7
Energy:   -17.5238850621
C   -2.83988328   2.34277088  -0.38648587
S   -1.80445628   2.52553094   1.06425584
C   -5.23570643   0.09871161   0.82311793
O   -5.44446341  -0.44057388   1.79042584
H   -3.84973871   2.66077643  -0.14089230
H   -2.84739418   1.29761715  -0.68456137
H   -2.43639339   2.95843576  -1.18626206
7
Energy:   -17.5238319586
C   -2.83383494   2.34449665  -0.37966202
S   -1.76298756   2.56583109   1.03966277
C   -5.25024102   0.09058318   0.81670244
O   -5.47450995  -0.45688087   1.77591774
H   -3.84034676   2.65691499  -0.11393530
H   -2.83801620   1.29377481  -0.65759739
H   -2.45809923   2.94854903  -1.20149024
7
Energy:   -17.5237801974
C   -2.82766865   2.34614727  -0.37243227
S   -1.72168520   2.60690371   1.01282613
C   -5.26451429   0.08266449   0.81024291
O   -5.50530482  -0.47337060   1.76048820
H   -3.83012683   2.65327448  -0.08596503
H   -2.82779619   1.29013428  -0.62962779
H   -2.48093970   2.93751525  -1.21593414
7
Energy:   -17.5237655318
C   -2.81735291   2.34837853  -0.35901071
S   -1.63512456   2.69930102   0.94074244
C   -5.21784142   0.09957827   0.85388969
O   -5.63551316  -0.53846708   1.68365325
H   -3.80786419   2.64435303  -0.02417149
H   -2.80608520   1.28197316  -0.56753753
H   -2.53825423   2.90815195  -1.24796765
7
Energy:   -17.5237231182
C   -2.80627058   2.35670408  -0.35954908
S   -1.60978513   2.72543289   0.92196190
C   -5.24623050   0.07539322   0.86234228
O   -5.66902082  -0.56471500   1.68792550
H   -3.79427557   2.65173009  -0.01623302
H   -2.79171061   1.28869030  -0.56001796
H   -2.54074246   2.91003331  -1.25683162
