7
Coordinates from ORCA-job scan3 E -13.040279764680
  C          -0.93926512047608      0.25711204468422     -2.46307019323453
  S          -1.35051989248248     -0.28048541628879     -0.74557562740033
  C           0.09303336215469      0.12770852664274     -0.01407531272460
  O           0.58737589169258      0.08813435644616      1.05738610701508
  H           0.07044289595594      0.65331960331447     -2.46819262908754
  H          -1.65445449573781      1.01640272105040     -2.76126934958549
  H          -1.02005964110683     -0.60494583584918     -3.11671999498260
7
Coordinates from ORCA-job scan3 E -13.038768183360
  C          -0.94805176797016      0.25457488891003     -2.46750949069139
  S          -1.36173280496107     -0.28110833549875     -0.76270603163654
  C           0.14701933938573      0.14818061411581     -0.00606027961093
  O           0.57272598660586      0.07504034698570      1.08746176533793
  H           0.06193306775204      0.65009486695094     -2.46889484523828
  H          -1.65994891660484      1.01605838529663     -2.76918986721771
  H          -1.02539190420756     -0.60559476676037     -3.12461825094308
7
Coordinates from ORCA-job scan3 E -13.035070847640
  C          -0.95680614278255      0.25277148970618     -2.47518913563966
  S          -1.37390204849378     -0.28320732286023     -0.77938427979615
  C           0.19658134780658      0.16328967673192      0.01148204632533
  O           0.56405197929376      0.06616160734566      1.11806155376557
  H           0.05350243225171      0.64709153290321     -2.47285425981830
  H          -1.66550957934400      1.01688011406775     -2.77851251972541
  H          -1.03136498873172     -0.60574109789450     -3.13512040511139
7
Coordinates from ORCA-job scan3 E -13.030205652240
  C          -0.96574776341911      0.25122753747302     -2.48473676372067
  S          -1.38675501606989     -0.28574234494886     -0.79591320048546
  C           0.24272785866143      0.17684782282452      0.03516683158170
  O           0.56005953968423      0.05835282142654      1.14895718095634
  H           0.04489789946127      0.64417542723080     -2.47832914848151
  H          -1.67115575882664      1.01809975441603     -2.78936892107116
  H          -1.03747375949130     -0.60571501842205     -3.14729297877924
7
Coordinates from ORCA-job scan3 E -13.024860653840
  C          -0.97499465095618      0.24975119436091     -2.49561907621432
  S          -1.39953815542713     -0.28921785580414     -0.81296588715548
  C           0.28648762858452      0.18902095268192      0.06321462448537
  O           0.55931082732603      0.05217210290279      1.18075551650913
  H           0.03625325056278      0.64076318424617     -2.48497841419331
  H          -1.67668134540679      1.02003761321155     -2.80077987935059
  H          -1.04428455468324     -0.60528119159920     -3.16114388408079
7
Coordinates from ORCA-job scan3 E -13.019483872440
  C          -0.98453257775038      0.24814149007831     -2.50736270399161
  S          -1.41201408708165     -0.29455536723426     -0.83078935198739
  C           0.32802797203060      0.20084304507266      0.09422397144364
  O           0.56105584652658      0.04778841148394      1.21321516179905
  H           0.02785276733781      0.63604213473964     -2.49209719129574
  H          -1.68159311036562      1.02309338212522     -2.81185419471318
  H          -1.05224381069733     -0.60410709626551     -3.17685269125476
7
Coordinates from ORCA-job scan3 E -13.014357146760
  C          -0.99413441106241      0.24572862033127     -2.52013533041725
  S          -1.42059154691648     -0.30856348937030     -0.85093165543333
  C           0.36654884089576      0.21636419571507      0.12869189186112
  O           0.56317138904150      0.04788934701873      1.24785594697655
  H           0.02157457706915      0.62512240028728     -2.50156344547184
  H          -1.68353965867836      1.03043450729265     -2.81750849413249
  H          -1.06647619034916     -0.59972958127469     -3.19792591338276
7
Coordinates from ORCA-job scan3 E -13.010348069650
  C          -0.93885460087812      0.19508205090046     -2.53820885951616
  S          -1.03732797026025     -0.79912236654511     -1.03654444621118
  C           0.16768407498887      0.49167251127245      0.23690825596954
  O           0.38776444851988      0.25109580836891      1.33399102104218
  H           0.09630219972787      0.28176350558800     -2.85288344399630
  H          -1.37725738984832      1.17194685475348     -2.36048083357588
  H          -1.51175776224993     -0.33519236433819     -3.29429869371220
7
Coordinates from ORCA-job scan3 E -13.006392277060
  C          -0.94450119039333      0.18928257525781     -2.54485847889271
  S          -1.05314505958551     -0.81490105322900     -1.05419291685626
  C           0.19248892006373      0.52142972389547      0.25876058107213
  O           0.39064647200946      0.24651187098958      1.34914640280934
  H           0.09364398716659      0.27699939720066     -2.84979339005698
  H          -1.37898987078924      1.16638182423716     -2.35797975216093
  H          -1.51359025847170     -0.32845833835167     -3.31259944591459
7
Coordinates from ORCA-job scan3 E -13.003368743320
  C          -0.95034998971239      0.18270731424917     -2.55047429871519
  S          -1.07042523559435     -0.83364808414483     -1.07209106900396
  C           0.21641122949784      0.55093100814435      0.27702185215420
  O           0.39330843909578      0.24461828537098      1.36059436592654
  H           0.09148465479521      0.27178191583015     -2.84281092857154
  H          -1.37931838581933      1.16007422416961     -2.35159134807135
  H          -1.51455771226275     -0.31921866361942     -3.33216557371870
7
Coordinates from ORCA-job scan3 E -13.001051016070
  C          -0.95606667639828      0.17641024144204     -2.55620558489149
  S          -1.08920739908932     -0.85408816007560     -1.09137245966561
  C           0.23854912139378      0.57731872040581      0.29559209882516
  O           0.39844087411846      0.24637496353418      1.37278915148964
  H           0.08944382755440      0.26643677193606     -2.83545494818042
  H          -1.37963582685843      1.15369056705580     -2.34480642226869
  H          -1.51497092072061     -0.30889710429829     -3.35205883530859
7
Coordinates from ORCA-job scan3 E -12.999224521930
  C          -0.96177176675692      0.17047671990751     -2.56255662671550
  S          -1.10875090186002     -0.87511429828713     -1.11186703785731
  C           0.25947258042923      0.60080528083212      0.31575989894189
  O           0.40595747314784      0.25085488015747      1.38719976629006
  H           0.08718972858490      0.26103525521498     -2.82905076670712
  H          -1.38035840694849      1.14736430611931     -2.33891372164755
  H          -1.51518570659654     -0.29817614394426     -3.37208851230446
7
Coordinates from ORCA-job scan3 E -12.997756709990
  C          -0.96657120468089      0.16464292523656     -2.56637796628212
  S          -1.13087461308647     -0.90000757874296     -1.13309232319886
  C           0.27865606842606      0.62475457807428      0.32988894871726
  O           0.41299206703352      0.25769031282065      1.39590189627381
  H           0.08613697089022      0.25473356966137     -2.81829598338901
  H          -1.38027455702862      1.14037619265658     -2.32853837304686
  H          -1.51351173155382     -0.28494399970648     -3.39100319907423
7
Coordinates from ORCA-job scan3 E -12.996552850810
  C          -0.97137446808718      0.15959357517367     -2.57162832589235
  S          -1.15332266062283     -0.92434577857512     -1.15629318811906
  C           0.29656236933753      0.64437228679360      0.34802857809079
  O           0.42361062665552      0.26736180474538      1.41020483384774
  H           0.08440023594242      0.24920667239987     -2.81103951755186
  H          -1.38089683395233      1.13417692709837     -2.32165411140131
  H          -1.51242626927311     -0.27311948763576     -3.40913526897397
7
Coordinates from ORCA-job scan3 E -12.995544483240
  C          -0.97578974241329      0.15417885955385     -2.57505757201549
  S          -1.17587299385044     -0.94947494942394     -1.17836881967415
  C           0.31521380994914      0.66760130542862      0.36186699438240
  O           0.43096084724269      0.27497118101587      1.41845243242096
  H           0.08330806781799      0.24217464855200     -2.80041631032056
  H          -1.38145617905604      1.12682302268271     -2.31120856466103
  H          -1.50981080969004     -0.25902806780912     -3.42678516013213
7
Coordinates from ORCA-job scan3 E -12.994694129190
  C          -0.98005107053766      0.14988160475066     -2.58004507810255
  S          -1.19959569461187     -0.97476278696102     -1.20366876049247
  C           0.33153156954882      0.68463518162472      0.37992300755047
  O           0.44365524631916      0.28728675254212      1.43418887922314
  H           0.08160937668450      0.23646762538538     -2.79380047431084
  H          -1.38252924711737      1.12073883585663     -2.30480184991393
  H          -1.50806718028557     -0.24700121319848     -3.44331272395382
7
Coordinates from ORCA-job scan3 E -12.993966932840
  C          -0.98373066696491      0.14485847644294     -2.58197993632167
  S          -1.22274308515639     -1.00050800203881     -1.22641789421090
  C           0.34984639977484      0.70865372761314      0.39132611218033
  O           0.44965890514834      0.29446176361764      1.43919025387074
  H           0.08088046042237      0.22884629175397     -2.78198787584063
  H          -1.38316134619230      1.11305880855100     -2.29302108351398
  H          -1.50419766703195     -0.23212506593987     -3.45862657616388
7
Coordinates from ORCA-job scan3 E -12.993354272910
  C          -0.98763875932895      0.14063741407815     -2.58604662942504
  S          -1.24831057468357     -1.02745982600401     -1.25423502926660
  C           0.36426915463722      0.72375105973826      0.40721152119869
  O           0.46412542216755      0.30995281668329      1.45449076726209
  H           0.07940913945279      0.22250260831817     -2.77374419383690
  H          -1.38409848167152      1.10639469623667     -2.28495531519810
  H          -1.50120290057352     -0.21853276905053     -3.47423812073413
7
Coordinates from ORCA-job scan3 E -12.992833368970
  C          -0.99046090460591      0.13597996572014     -2.58607567769770
  S          -1.27195222826735     -1.05363822032614     -1.27768133930464
  C           0.38243807493706      0.74924749276271      0.41550578195587
  O           0.46801314723733      0.31598313733223      1.45522699945044
  H           0.07915165397228      0.21429346324286     -2.76031621634286
  H          -1.38464758583323      1.09836155762202     -2.27142929123693
  H          -1.49598915744017     -0.20298139635382     -3.48674725682419
7
Coordinates from ORCA-job scan3 E -12.992404779540
  C          -0.99370964824038      0.13148380244208     -2.58767238940192
  S          -1.30077278555279     -1.08397635177837     -1.30911305218959
  C           0.39398600218335      0.76295040975366      0.42530571603259
  O           0.48378341601680      0.33574866647655      1.46670126533651
  H           0.07847243207812      0.20638312626918     -2.74711742644520
  H          -1.38490552342902      1.09019796578263     -2.25837010822216
  H          -1.49030089305607     -0.18554161894573     -3.50125100511023
7
Coordinates from ORCA-job scan3 E -12.992047222290
  C          -0.99583538660529      0.12706760041865     -2.58605203375767
  S          -1.32437236784119     -1.10970851428819     -1.33324283820965
  C           0.41242565613202      0.79026386925111      0.43112618626108
  O           0.48527965330357      0.33998513911922      1.46352162578325
  H           0.07848458395907      0.19765604035919     -2.73243991275295
  H          -1.38540762226362      1.08178252278120     -2.24351950131533
  H          -1.48402151668456     -0.16980065764119     -3.51091052600872
7
Coordinates from ORCA-job scan3 E -12.991762753420
  C          -0.99781415338572      0.12182537314564     -2.58249710179349
  S          -1.35915944076516     -1.14645985344832     -1.37094446033446
  C           0.41890458621482      0.80246578354622      0.42846719402924
  O           0.50209996235350      0.36657636406854      1.46579720280263
  H           0.07942133252467      0.18687622200018     -2.70892408424241
  H          -1.38391626260892      1.07067045010939     -2.22018555421784
  H          -1.47298302433320     -0.14470833942165     -3.52323019624367
7
Coordinates from ORCA-job scan3 E -12.991527802480
  C          -0.99926001816319      0.11713234705511     -2.57834059069523
  S          -1.38308930745387     -1.17199035949289     -1.39642523231302
  C           0.43716663977904      0.83107446149020      0.43141173378528
  O           0.50147015852934      0.36949376365402      1.45863643614440
  H           0.07954480387432      0.17837226581106     -2.69313944342366
  H          -1.38377593091000      1.06215598655694     -2.20440661634337
  H          -1.46550334565564     -0.12899246507444     -3.52925328715440
7
Coordinates from ORCA-job scan3 E -12.991335120510
  C          -1.00083160161878      0.11236314845002     -2.57442123897369
  S          -1.40704769112245     -1.19709271908583     -1.42276651844945
  C           0.45529154359524      0.85968527367350      0.43394209248624
  O           0.50084288892367      0.37304115798387      1.45034336789584
  H           0.07959139867326      0.16886760586069     -2.67603852748146
  H          -1.38383151002255      1.05271372244628     -2.18727174699847
  H          -1.45746202842839     -0.11233218932852     -3.53530442847900
7
Coordinates from ORCA-job scan3 E -12.991178700680
  C          -1.00353440147859      0.10744609881869     -2.57362236326639
  S          -1.43068223146677     -1.22096584260218     -1.45035990270861
  C           0.47309169385516      0.88593696730102      0.43976605127795
  O           0.50374200134017      0.37982660385442      1.44675330954588
  H           0.07860419456490      0.15771866048421     -2.65937277112506
  H          -1.38506274724228      1.04171187151633     -2.17052469372287
  H          -1.44960550957260     -0.09442835937248     -3.54415663000088
7
Coordinates from ORCA-job scan3 E -12.991070603770
  C          -1.00163891255939      0.10061292804853     -2.55559249219910
  S          -1.48481046129396     -1.27499972789525     -1.51471011745704
  C           0.46143286660133      0.88815378953043      0.40085076689299
  O           0.52944454281570      0.43201442485367      1.42933336863461
  H           0.08319487788488      0.13716956609903     -2.60625201066861
  H          -1.37947100025471      1.02055635687535     -2.11773992413823
  H          -1.42159891319384     -0.04626133751176     -3.54740659106461
7
Coordinates from ORCA-job scan3 E -12.990964106490
  C          -1.00368102324348      0.09545440283687     -2.55237660793428
  S          -1.50692875716141     -1.29610283337760     -1.54277493205000
  C           0.48077251973837      0.91749936814778      0.40568995059175
  O           0.52917084627909      0.43496278288905      1.42318160445965
  H           0.08186860170030      0.12565187928387     -2.59117337116021
  H          -1.38160148219957      1.00952573549039     -2.10239329453027
  H          -1.41304770511329     -0.02974533527036     -3.55167034937662
7
Coordinates from ORCA-job scan3 E -12.990867861990
  C          -1.00643900180420      0.09013969240797     -2.55102325710486
  S          -1.52857432814685     -1.31606597756852     -1.57148351664082
  C           0.50005473283868      0.94484786317308      0.41396751051614
  O           0.53119482752632      0.43954613248377      1.42095273066785
  H           0.07968208211298      0.11480380092109     -2.57798613564770
  H          -1.38373559739561      0.99864587985814     -2.08922432447255
  H          -1.40562971513132     -0.01467139127553     -3.55672000731805
7
Coordinates from ORCA-job scan3 E -12.990778265190
  C          -1.00907503379119      0.08473325700371     -2.54913914612841
  S          -1.55072443670517     -1.33603801029208     -1.60168644171402
  C           0.51875418400253      0.97172547791085      0.42135168399435
  O           0.53360018624939      0.44527348936530      1.41779711288943
  H           0.07746850003329      0.10317477690809     -2.56379312575037
  H          -1.38604400623517      0.98707382826283     -2.07500036891164
  H          -1.39742639355368      0.00130318084131     -3.56104671437934
7
Coordinates from ORCA-job scan3 E -12.990692872590
  C          -1.01166830817429      0.07917486630353     -2.54685185799557
  S          -1.57331229773305     -1.35595779086308     -1.63329535135113
  C           0.53692655071504      0.99812315333676      0.42802589368790
  O           0.53645195723464      0.45209960141091      1.41399132465615
  H           0.07512914476487      0.09088392979429     -2.54876544006681
  H          -1.38847129927501      0.97483641276896     -2.05994383578024
  H          -1.38850274753219      0.01808582724863     -3.56467773315029
7
Coordinates from ORCA-job scan3 E -12.990659193220
  C          -1.01114692831327      0.06892645925698     -2.52675793742290
  S          -1.64049829844815     -1.41015022661107     -1.73645717518968
  C           0.50853747748909      0.97851285556242      0.37848388519606
  O           0.59003851035476      0.54092863729864      1.41380207559999
  H           0.07470621998787      0.05568444773612     -2.48427833836905
  H          -1.38794654047964      0.93906324274834     -1.99577675540496
  H          -1.34713744059066      0.08428058400856     -3.56053275440946
7
Coordinates from ORCA-job scan3 E -12.990597261700
  C          -1.01525479724823      0.06247948271432     -2.52739857612178
  S          -1.66605906757695     -1.42930587469864     -1.77834908831495
  C           0.52204050086278      0.99570241072522      0.38782890267719
  O           0.60607390266218      0.56159482957612      1.42444191462949
  H           0.06980230822025      0.03995968416475     -2.47083520625080
  H          -1.39299065050055      0.92342363807687     -1.98228734326860
  H          -1.33705919641948      0.10339182944135     -3.56491760335053
7
Coordinates from ORCA-job scan3 E -12.990536752430
  C          -1.01934267827740      0.05568439482247     -2.52735036219326
  S          -1.69192260695880     -1.44786700882476     -1.82222201995196
  C           0.53508677184967      1.01273546961886      0.39608928281104
  O           0.62239543986519      0.58315759694921      1.43431715489080
  H           0.06465319503315      0.02346390592111     -2.45645001151921
  H          -1.39815255549908      0.90693568237115     -1.96789849502775
  H          -1.32616456601272      0.12313595914195     -3.56800254900964
7
Coordinates from ORCA-job scan3 E -12.990479168220
  C          -1.02366341151271      0.04834245264064     -2.52701036794764
  S          -1.71954394820865     -1.46674891700374     -1.87077814289895
  C           0.54587881279595      1.02680051783847      0.40296729583777
  O           0.64230087888486      0.60990147690717      1.44555414831944
  H           0.05885040453062      0.00511080054732     -2.44029825582616
  H          -1.40380275321962      0.88849072258062     -1.95179815050051
  H          -1.31346698327045      0.14534894648952     -3.57015352698394
7
Coordinates from ORCA-job scan3 E -12.990423409820
  C          -1.02794031552137      0.04080202531636     -2.52618017407487
  S          -1.74733187837344     -1.48473774726812     -1.92144808065987
  C           0.55623555093759      1.04049688292648      0.40920850948632
  O           0.66281298520599      0.63786217549990      1.45640725575311
  H           0.05266370792944     -0.01435674121382     -2.42357799072871
  H          -1.40997139023708      0.86901260880246     -1.93508438738973
  H          -1.29991565994112      0.16816679593673     -3.57084213238623
7
Coordinates from ORCA-job scan3 E -12.990368943100
  C          -1.03208714609149      0.03314925694396     -2.52475745760130
  S          -1.77496207978070     -1.50143410198274     -1.97398293565337
  C           0.56652635592145      1.05452407102766      0.41465409879400
  O           0.68311379591069      0.66609289731426      1.46613947743085
  H           0.04612749633177     -0.03489207048224     -2.40611811568262
  H          -1.41655502615401      0.84850627006888     -1.91760911443594
  H          -1.28561039613770      0.19129967711022     -3.56984295285159
7
Coordinates from ORCA-job scan3 E -12.990315839650
  C          -1.03638311032255      0.02509943040319     -2.52306318771459
  S          -1.80253576481713     -1.51708754644024     -2.02823455427771
  C           0.57658692665970      1.06833873233085      0.41979454238256
  O           0.70394414848052      0.69534140442862      1.47561676142478
  H           0.03902012348327     -0.05644552937409     -2.38837740880001
  H          -1.42364204586657      0.82694090902375     -1.89987565515215
  H          -1.27043727761724      0.21505859962791     -3.56737749786288
7
Coordinates from ORCA-job scan3 E -12.990264078410
  C          -1.04077004836985      0.01674148701875     -2.52108411992157
  S          -1.82993712439709     -1.53138078570215     -2.08442992303917
  C           0.58647082130801      1.08199328695572      0.42469545433377
  O           0.72530803965199      0.72562861670454      1.48481320974015
  H           0.03132814104710     -0.07915383056145     -2.37034402863136
  H          -1.43133418254064      0.80423311149006     -1.88184269680299
  H          -1.25451264669952      0.23918411409451     -3.56332489567881
7
Coordinates from ORCA-job scan3 E -12.990249412800
  C          -1.04814433911544      0.00202493313642     -2.51654825733458
  S          -1.88694679129739     -1.55256262516422     -2.21682060151875
  C           0.55355876541343      1.02486500324644      0.42945249328374
  O           0.81594595803466      0.86011214295907      1.51299694895912
  H           0.01432775342132     -0.12873951194294     -2.32977426776475
  H          -1.44752638397284      0.75415754143708     -1.84155097983665
  H          -1.21466196248374      0.29738851632815     -3.54927233578812
7
Coordinates from ORCA-job scan3 E -12.990206999240
  C          -1.05568526611159     -0.00547959167495     -2.52544989804206
  S          -1.90369347002784     -1.56005422703525     -2.25344155528409
  C           0.57267703121614      1.04019136033327      0.45881058748741
  O           0.83866931323063      0.88134896992123      1.54236725703696
  H           0.00506006809532     -0.14303703422615     -2.33320676236167
  H          -1.45779987873282      0.74031931230335     -1.84490524166684
  H          -1.21267479766983      0.30395721037850     -3.55569138716968
