22
Coordinates from ORCA-job ts2.irc_IRC_Full E -31.206644772290
  C       1.709768      1.138167      2.795952
  C       1.066204      0.644613      1.507018
  C      -0.448676      0.519667      1.659265
  C      -1.098902      0.044257      0.363429
  C      -2.519869     -0.059629      0.428448
  N      -3.665798     -0.086147      0.439328
  C      -0.700602      2.111279     -1.442559
  S      -0.382847      3.495936     -0.463000
  C      -1.988920      3.791505      0.232319
  O      -2.224343      4.681874      0.987526
  H      -0.658119     -0.884384     -0.003003
  H      -0.677400     -0.181408      2.466151
  H      -0.868040      1.490091      1.939771
  H       1.485571     -0.327835      1.237715
  H       1.298354      1.343223      0.699848
  H       2.787250      1.219417      2.677837
  H       1.319188      2.117172      3.063966
  H       1.503795      0.450860      3.613474
  H      -0.887394      0.854060     -0.439561
  H       0.150432      1.782985     -2.013277
  H      -1.658606      2.076787     -1.936684
  H      -2.721280      3.054989     -0.130111
22
Coordinates from ORCA-job ts2.irc_IRC_Full E -31.206569416700
  C       1.709733      1.138206      2.795753
  C       1.066417      0.644907      1.506637
  C      -0.448444      0.520134      1.658627
  C      -1.099421      0.044917      0.363573
  C      -2.519730     -0.059483      0.427808
  N      -3.665712     -0.085154      0.437646
  C      -0.701495      2.106547     -1.438611
  S      -0.383016      3.494602     -0.462207
  C      -1.988900      3.791319      0.232577
  O      -2.224277      4.682154      0.987118
  H      -0.656903     -0.882301     -0.005893
  H      -0.677227     -0.180756      2.465769
  H      -0.867771      1.490748      1.939219
  H       1.485568     -0.327670      1.237382
  H       1.299121      1.343502      0.699547
  H       2.787238      1.219458      2.677902
  H       1.319104      2.117167      3.063888
  H       1.503560      0.450752      3.613109
  H      -0.888281      0.857925     -0.440164
  H       0.149712      1.780589     -2.010745
  H      -1.658119      2.075192     -1.935582
  H      -2.721391      3.054726     -0.129502
22
Coordinates from ORCA-job ts2.irc_IRC_Full E -31.206492371620
  C       1.709694      1.138253      2.795574
  C       1.066665      0.645217      1.506173
  C      -0.448300      0.520761      1.658155
  C      -1.099529      0.044978      0.363624
  C      -2.519675     -0.059301      0.427237
  N      -3.665814     -0.084151      0.435974
  C      -0.702292      2.101666     -1.434430
  S      -0.383227      3.493263     -0.461529
  C      -1.988838      3.791101      0.232753
  O      -2.224230      4.682470      0.986797
  H      -0.655826     -0.879920     -0.008711
  H      -0.677079     -0.180134      2.465289
  H      -0.867463      1.491385      1.938664
  H       1.485531     -0.327487      1.237072
  H       1.299942      1.343777      0.699252
  H       2.787220      1.219492      2.677960
  H       1.319011      2.117160      3.063823
  H       1.503326      0.450647      3.612755
  H      -0.889150      0.861735     -0.440727
  H       0.148909      1.778404     -2.008310
  H      -1.657652      2.073694     -1.934601
  H      -2.721459      3.054470     -0.128941
22
Coordinates from ORCA-job ts2.irc_IRC_Full E -31.206413956860
  C       1.709654      1.138299      2.795400
  C       1.066903      0.645567      1.505757
  C      -0.448076      0.521350      1.657585
  C      -1.100034      0.045221      0.364050
  C      -2.519559     -0.059046      0.426637
  N      -3.665796     -0.083150      0.434356
  C      -0.703230      2.096583     -1.430188
  S      -0.383460      3.492002     -0.460953
  C      -1.988795      3.791045      0.233002
  O      -2.224152      4.682622      0.986406
  H      -0.654557     -0.877858     -0.011707
  H      -0.676996     -0.179585      2.464688
  H      -0.867199      1.492140      1.938134
  H       1.485458     -0.327307      1.236784
  H       1.300817      1.344080      0.698911
  H       2.787199      1.219516      2.678008
  H       1.318907      2.117147      3.063766
  H       1.503098      0.450547      3.612419
  H      -0.889993      0.865244     -0.441098
  H       0.148026      1.776489     -2.006013
  H      -1.656979      2.072343     -1.933661
  H      -2.721472      3.054228     -0.128432
22
Coordinates from ORCA-job ts2.irc_IRC_Full E -31.206332770930
  C       1.709596      1.138333      2.795239
  C       1.067204      0.645955      1.505282
  C      -0.447840      0.522151      1.657129
  C      -1.100180      0.044969      0.364553
  C      -2.519494     -0.058503      0.425927
  N      -3.665855     -0.082237      0.432834
  C      -0.704130      2.091227     -1.425606
  S      -0.383769      3.490737     -0.460619
  C      -1.988677      3.790852      0.233046
  O      -2.224163      4.682928      0.986238
  H      -0.653370     -0.875526     -0.014750
  H      -0.677000     -0.179099      2.463757
  H      -0.866958      1.492994      1.937659
  H       1.485356     -0.327146      1.236531
  H       1.301725      1.344402      0.698536
  H       2.787127      1.219520      2.678035
  H       1.318794      2.117121      3.063716
  H       1.502888      0.450453      3.612130
  H      -0.890935      0.868152     -0.440971
  H       0.147033      1.774942     -2.003938
  H      -1.656196      2.071231     -1.932905
  H      -2.721393      3.054022     -0.127972
22
Coordinates from ORCA-job ts2.irc_IRC_Full E -31.206250543420
  C       1.709498      1.138337      2.795092
  C       1.067485      0.646316      1.504835
  C      -0.447513      0.523017      1.656600
  C      -1.100570      0.044816      0.365532
  C      -2.519035     -0.057597      0.424931
  N      -3.665863     -0.081529      0.431606
  C      -0.705048      2.085972     -1.421235
  S      -0.384146      3.489503     -0.460634
  C      -1.988584      3.790899      0.233189
  O      -2.224212      4.683026      0.986032
  H      -0.652203     -0.873412     -0.017749
  H      -0.677091     -0.178637      2.462433
  H      -0.866805      1.493840      1.937280
  H       1.485251     -0.327031      1.236341
  H       1.302540      1.344716      0.698165
  H       2.787009      1.219508      2.678042
  H       1.318696      2.117084      3.063676
  H       1.502726      0.450379      3.611923
  H      -0.891983      0.869930     -0.440140
  H       0.145913      1.773955     -2.002206
  H      -1.655090      2.070501     -1.932270
  H      -2.721210      3.053887     -0.127589
22
Coordinates from ORCA-job ts2.irc_IRC_Full E -31.206152559940
  C       1.709362      1.138309      2.794958
  C       1.067719      0.646623      1.504371
  C      -0.447261      0.523997      1.655789
  C      -1.100549      0.044812      0.366111
  C      -2.518792     -0.056212      0.423529
  N      -3.665079     -0.081032      0.430662
  C      -0.705932      2.080255     -1.416454
  S      -0.384628      3.488340     -0.461028
  C      -1.988397      3.790978      0.233251
  O      -2.224423      4.683144      0.985989
  H      -0.651417     -0.870712     -0.020474
  H      -0.677204     -0.178053      2.460635
  H      -0.866703      1.494568      1.937038
  H       1.485169     -0.326976      1.236208
  H       1.303212      1.344989      0.697852
  H       2.786860      1.219488      2.678039
  H       1.318621      2.117046      3.063649
  H       1.502617      0.450318      3.611808
  H      -0.893430      0.869994     -0.437929
  H       0.144776      1.773525     -2.000956
  H      -1.653851      2.070235     -1.931937
  H      -2.720908      3.053842     -0.127259
22
Coordinates from ORCA-job ts2.irc_IRC_Full E -31.206048510120
  C       1.709246      1.138277      2.794874
  C       1.067872      0.646815      1.504033
  C      -0.447118      0.524759      1.654917
  C      -1.100649      0.045747      0.365933
  C      -2.517559     -0.055027      0.422339
  N      -3.665001     -0.080743      0.430070
  C      -0.706707      2.075295     -1.412795
  S      -0.384949      3.487916     -0.461216
  C      -1.988199      3.791088      0.233300
  O      -2.224614      4.683184      0.985967
  H      -0.650891     -0.868723     -0.022424
  H      -0.677281     -0.177609      2.459269
  H      -0.866651      1.495011      1.936905
  H       1.485120     -0.326953      1.236134
  H       1.303631      1.345162      0.697661
  H       2.786758      1.219475      2.678035
  H       1.318576      2.117021      3.063635
  H       1.502560      0.450280      3.611757
  H      -0.894770      0.868976     -0.435373
  H       0.143986      1.773441     -2.000270
  H      -1.652927      2.070255     -1.931854
  H      -2.720669      3.053832     -0.127044
22
Coordinates from ORCA-job ts2.irc_IRC_Full E -31.205955255130
  C       1.709164      1.138251      2.794830
  C       1.067960      0.646918      1.503825
  C      -0.447025      0.525262      1.654184
  C      -1.100780      0.047095      0.365459
  C      -2.517045     -0.054248      0.421522
  N      -3.664470     -0.080559      0.429721
  C      -0.707321      2.071592     -1.410414
  S      -0.385111      3.487971     -0.461202
  C      -1.988049      3.791213      0.233363
  O      -2.224734      4.683151      0.985920
  H      -0.650506     -0.867584     -0.023701
  H      -0.677328     -0.177334      2.458427
  H      -0.866634      1.495249      1.936832
  H       1.485093     -0.326943      1.236096
  H       1.303863      1.345259      0.697557
  H       2.786699      1.219468      2.678032
  H       1.318552      2.117006      3.063627
  H       1.502534      0.450259      3.611735
  H      -0.895772      0.867765     -0.433235
  H       0.143512      1.773492     -1.999938
  H      -1.652323      2.070366     -1.931869
  H      -2.720518      3.053832     -0.126919
22
Coordinates from ORCA-job ts2.irc_IRC_Full E -31.205853415070
  C       1.709102      1.138229      2.794806
  C       1.068013      0.646978      1.503695
  C      -0.446948      0.525604      1.653529
  C      -1.101079      0.048723      0.364888
  C      -2.516164     -0.053698      0.420919
  N      -3.664378     -0.080437      0.429496
  C      -0.707865      2.068610     -1.408783
  S      -0.385183      3.488285     -0.461054
  C      -1.987941      3.791426      0.233503
  O      -2.224785      4.682997      0.985785
  H      -0.650147     -0.867000     -0.024648
  H      -0.677360     -0.177165      2.457899
  H      -0.866637      1.495389      1.936782
  H       1.485076     -0.326937      1.236075
  H       1.304003      1.345318      0.697495
  H       2.786667      1.219464      2.678030
  H       1.318539      2.116996      3.063623
  H       1.502520      0.450248      3.611723
  H      -0.896567      0.866534     -0.431398
  H       0.143205      1.773587     -1.999764
  H      -1.651877      2.070500     -1.931908
  H      -2.720427      3.053826     -0.126843
22
Coordinates from ORCA-job ts2.irc_IRC_Full E -31.205163889280
  C       1.708934      1.138158      2.794767
  C       1.068273      0.647158      1.503224
  C      -0.447156      0.526999      1.650635
  C      -1.099895      0.055628      0.358616
  C      -2.515604     -0.051541      0.418770
  N      -3.661341     -0.080070      0.428781
  C      -0.709583      2.056393     -1.401325
  S      -0.385423      3.490165     -0.460454
  C      -1.987196      3.791523      0.233366
  O      -2.225258      4.683113      0.985958
  H      -0.650056     -0.862863     -0.026900
  H      -0.677362     -0.176500      2.456202
  H      -0.866598      1.495669      1.936833
  H       1.485059     -0.326977      1.236025
  H       1.304298      1.345418      0.697418
  H       2.786577      1.219462      2.678028
  H       1.318507      2.116973      3.063616
  H       1.502507      0.450209      3.611744
  H      -0.900301      0.859042     -0.421873
  H       0.142694      1.774221     -2.000017
  H      -1.651216      2.071446     -1.932943
  H      -2.720095      3.053854     -0.126617
22
Coordinates from ORCA-job ts2.irc_IRC_Full E -31.205372916270
  C       1.708753      1.138100      2.794771
  C       1.068594      0.647215      1.502887
  C      -0.447197      0.528422      1.647186
  C      -1.105287      0.049420      0.367568
  C      -2.511537     -0.050227      0.417132
  N      -3.660826     -0.079565      0.428206
  C      -0.712956      2.039558     -1.394702
  S      -0.385236      3.492304     -0.459348
  C      -1.986257      3.791890      0.233323
  O      -2.225433      4.682881      0.985854
  H      -0.640333     -0.839895     -0.055859
  H      -0.677321     -0.175245      2.454890
  H      -0.867855      1.496056      1.936708
  H       1.485058     -0.327128      1.235765
  H       1.305968      1.345673      0.697602
  H       2.786373      1.219359      2.677946
  H       1.318482      2.117039      3.063483
  H       1.502415      0.450131      3.611833
  H      -0.883185      0.977682     -0.516464
  H       0.139992      1.784424     -2.008070
  H      -1.643313      2.085039     -1.947439
  H      -2.719001      3.053053     -0.124933
22
Coordinates from ORCA-job ts2.irc_IRC_Full E -31.207647696890
  C       1.708573      1.138041      2.794775
  C       1.068915      0.647271      1.502549
  C      -0.447237      0.529845      1.643737
  C      -1.110679      0.043212      0.376520
  C      -2.507469     -0.048914      0.415493
  N      -3.660310     -0.079060      0.427631
  C      -0.716328      2.022724     -1.388079
  S      -0.385049      3.494443     -0.458241
  C      -1.985319      3.792257      0.233279
  O      -2.225607      4.682650      0.985751
  H      -0.630609     -0.816927     -0.084818
  H      -0.677279     -0.173991      2.453577
  H      -0.869113      1.496442      1.936583
  H       1.485057     -0.327279      1.235505
  H       1.307638      1.345928      0.697786
  H       2.786168      1.219256      2.677865
  H       1.318456      2.117104      3.063351
  H       1.502324      0.450054      3.611923
  H      -0.866068      1.096321     -0.611055
  H       0.137290      1.794628     -2.016124
  H      -1.635409      2.098631     -1.961934
  H      -2.717908      3.052251     -0.123248
22
Coordinates from ORCA-job ts2.irc_IRC_Full E -31.209453383220
  C       1.707944      1.137916      2.794640
  C       1.069516      0.647402      1.501108
  C      -0.447010      0.532714      1.637719
  C      -1.126246      0.004133      0.418454
  C      -2.504746     -0.046391      0.411357
  N      -3.654891     -0.076619      0.425380
  C      -0.721938      2.001966     -1.389372
  S      -0.383729      3.509336     -0.450611
  C      -1.982857      3.793110      0.232562
  O      -2.226760      4.682261      0.986030
  H      -0.629004     -0.809675     -0.091259
  H      -0.676705     -0.172581      2.453173
  H      -0.869609      1.496633      1.936189
  H       1.485128     -0.327326      1.235414
  H       1.308282      1.346135      0.697645
  H       2.786009      1.219163      2.677820
  H       1.318466      2.117143      3.063280
  H       1.502224      0.450037      3.611921
  H      -0.859698      1.118604     -0.632364
  H       0.136067      1.796999     -2.018006
  H      -1.633106      2.101770     -1.965480
  H      -2.717303      3.052158     -0.122774
22
Coordinates from ORCA-job ts2.irc_IRC_Full E -31.209805776560
  C       1.707882      1.137893      2.794443
  C       1.069431      0.647375      1.500813
  C      -0.446471      0.531646      1.641459
  C      -1.124841      0.000364      0.420946
  C      -2.506458     -0.047562      0.412521
  N      -3.657651     -0.075764      0.424315
  C      -0.720978      2.003013     -1.386911
  S      -0.384394      3.507019     -0.452254
  C      -1.982955      3.793491      0.232808
  O      -2.227300      4.682382      0.986309
  H      -0.627993     -0.810482     -0.092594
  H      -0.675760     -0.171440      2.454246
  H      -0.869956      1.496791      1.935635
  H       1.485187     -0.327406      1.235304
  H       1.308529      1.346333      0.697357
  H       2.785820      1.219135      2.677793
  H       1.318435      2.117145      3.063247
  H       1.502160      0.450009      3.611879
  H      -0.858633      1.123171     -0.636857
  H       0.135845      1.797231     -2.018563
  H      -1.633141      2.102242     -1.966436
  H      -2.716721      3.052302     -0.122633
22
Coordinates from ORCA-job ts2.irc_IRC_Full E -31.210044641110
  C       1.707864      1.137880      2.794302
  C       1.069450      0.647347      1.500719
  C      -0.446089      0.530974      1.643623
  C      -1.124915     -0.003112      0.423702
  C      -2.506982     -0.048673      0.413576
  N      -3.659841     -0.074922      0.423309
  C      -0.720623      2.003678     -1.386052
  S      -0.384794      3.505808     -0.453184
  C      -1.983001      3.793767      0.232983
  O      -2.227706      4.682482      0.986524
  H      -0.627052     -0.811200     -0.093775
  H      -0.674958     -0.170770      2.455911
  H      -0.870259      1.496829      1.935173
  H       1.485239     -0.327461      1.235194
  H       1.308651      1.346453      0.697152
  H       2.785700      1.219119      2.677770
  H       1.318408      2.117134      3.063200
  H       1.502104      0.449999      3.611807
  H      -0.857687      1.126960     -0.640582
  H       0.135547      1.797545     -2.018959
  H      -1.632752      2.102662     -1.967057
  H      -2.716269      3.052389     -0.122511
22
Coordinates from ORCA-job ts2.irc_IRC_Full E -31.210459587830
  C       1.707870      1.137871      2.794073
  C       1.069564      0.647269      1.500638
  C      -0.445508      0.529722      1.646920
  C      -1.126231     -0.010925      0.430179
  C      -2.507877     -0.051191      0.415852
  N      -3.663404     -0.072993      0.421072
  C      -0.720325      2.004767     -1.385819
  S      -0.385367      3.504501     -0.454404
  C      -1.983026      3.794275      0.233293
  O      -2.228458      4.682672      0.986930
  H      -0.625177     -0.812484     -0.096110
  H      -0.673216     -0.169602      2.460274
  H      -0.870891      1.496729      1.934213
  H       1.485362     -0.327552      1.234951
  H       1.308762      1.346607      0.696816
  H       2.785534      1.219100      2.677719
  H       1.318348      2.117096      3.063076
  H       1.501992      0.449990      3.611618
  H      -0.855730      1.134509     -0.648044
  H       0.134923      1.798383     -2.019829
  H      -1.631691      2.103640     -1.968336
  H      -2.715417      3.052504     -0.122257
22
Coordinates from ORCA-job ts2.irc_IRC_Full E -31.210875112090
  C       1.707941      1.137895      2.793935
  C       1.069694      0.647101      1.500637
  C      -0.445354      0.528307      1.648831
  C      -1.128988     -0.020582      0.438320
  C      -2.509565     -0.054398      0.418483
  N      -3.664858     -0.070534      0.418344
  C      -0.720479      2.005650     -1.387976
  S      -0.385521      3.505310     -0.454490
  C      -1.982913      3.794721      0.233536
  O      -2.229099      4.682830      0.987289
  H      -0.623528     -0.813276     -0.098195
  H      -0.671052     -0.168381      2.466366
  H      -0.871583      1.496207      1.933125
  H       1.485542     -0.327614      1.234669
  H       1.308590      1.346582      0.696646
  H       2.785525      1.219114      2.677661
  H       1.318280      2.117044      3.062896
  H       1.501886      0.449991      3.611365
  H      -0.853742      1.141737     -0.655365
  H       0.134503      1.799666     -2.021159
  H      -1.630570      2.105028     -1.970107
  H      -2.714672      3.052494     -0.121984
22
Coordinates from ORCA-job ts2.irc_IRC_Full E -31.211256846750
  C       1.707991      1.137900      2.793765
  C       1.069513      0.646756      1.500522
  C      -0.445426      0.526266      1.651246
  C      -1.131009     -0.030452      0.446353
  C      -2.510522     -0.057872      0.421077
  N      -3.666981     -0.067968      0.415512
  C      -0.720258      2.007023     -1.390019
  S      -0.385540      3.506768     -0.454450
  C      -1.982743      3.795141      0.233737
  O      -2.229682      4.682963      0.987649
  H      -0.622418     -0.813697     -0.099704
  H      -0.668487     -0.166429      2.472457
  H      -0.872321      1.495255      1.931879
  H       1.485807     -0.327685      1.234394
  H       1.308168      1.346449      0.696582
  H       2.785598      1.219153      2.677596
  H       1.318213      2.117023      3.062698
  H       1.501819      0.449972      3.611165
  H      -0.852117      1.147734     -0.661748
  H       0.134757      1.801278     -2.023330
  H      -1.630322      2.106904     -1.972841
  H      -2.714005      3.052410     -0.121715
22
Coordinates from ORCA-job ts2.irc_IRC_Full E -31.211618038980
  C       1.708024      1.137855      2.793516
  C       1.069290      0.646271      1.500616
  C      -0.445293      0.524328      1.653430
  C      -1.133662     -0.039936      0.454658
  C      -2.511914     -0.061664      0.423732
  N      -3.668118     -0.065234      0.412517
  C      -0.720284      2.008732     -1.392873
  S      -0.385486      3.508502     -0.454523
  C      -1.982594      3.795585      0.233942
  O      -2.230267      4.683067      0.988032
  H      -0.621240     -0.814572     -0.101134
  H      -0.665734     -0.164449      2.479400
  H      -0.873186      1.493944      1.930488
  H       1.486144     -0.327804      1.234104
  H       1.307419      1.346234      0.696551
  H       2.785639      1.219200      2.677501
  H       1.318153      2.116984      3.062458
  H       1.501804      0.449970      3.610970
  H      -0.850716      1.153005     -0.667605
  H       0.135032      1.803402     -2.025808
  H      -1.629673      2.109170     -1.975713
  H      -2.713301      3.052298     -0.121431
22
Coordinates from ORCA-job ts2.irc_IRC_Full E -31.211953201970
  C       1.708060      1.137812      2.793345
  C       1.069096      0.645723      1.500557
  C      -0.445383      0.521913      1.656117
  C      -1.135168     -0.049518      0.462260
  C      -2.512918     -0.065508      0.426419
  N      -3.669926     -0.062510      0.409439
  C      -0.719928      2.010492     -1.395365
  S      -0.385493      3.510241     -0.454880
  C      -1.982415      3.796028      0.234106
  O      -2.230853      4.683160      0.988462
  H      -0.620574     -0.815183     -0.101880
  H      -0.662754     -0.162081      2.486423
  H      -0.874173      1.492539      1.929060
  H       1.486534     -0.327980      1.233828
  H       1.306378      1.345900      0.696594
  H       2.785663      1.219248      2.677351
  H       1.318097      2.116909      3.062165
  H       1.501851      0.449985      3.610806
  H      -0.849589      1.157716     -0.673129
  H       0.135384      1.805979     -2.028629
  H      -1.629283      2.111867     -1.979082
  H      -2.712572      3.052158     -0.121143
22
Coordinates from ORCA-job ts2.irc_IRC_Full E -31.212269006560
  C       1.708118      1.137712      2.793041
  C       1.068740      0.644998      1.500867
  C      -0.445214      0.519699      1.658455
  C      -1.137902     -0.058208      0.470240
  C      -2.513891     -0.069461      0.429085
  N      -3.670689     -0.059746      0.406292
  C      -0.720026      2.012491     -1.398434
  S      -0.385488      3.512135     -0.455385
  C      -1.982258      3.796507      0.234276
  O      -2.231397      4.683173      0.988876
  H      -0.619617     -0.816607     -0.102687
  H      -0.659723     -0.159820      2.494079
  H      -0.875265      1.490847      1.927545
  H       1.487000     -0.328225      1.233546
  H       1.305049      1.345560      0.696563
  H       2.785691      1.219304      2.677161
  H       1.318022      2.116841      3.061835
  H       1.501955      0.449992      3.610694
  H      -0.848657      1.161847     -0.678332
  H       0.135750      1.808990     -2.031644
  H      -1.628361      2.114868     -1.982400
  H      -2.711803      3.051989     -0.120844
22
Coordinates from ORCA-job ts2.irc_IRC_Full E -31.212562733220
  C       1.708155      1.137629      2.792924
  C       1.068522      0.644300      1.500773
  C      -0.445451      0.517053      1.661448
  C      -1.138483     -0.067531      0.477224
  C      -2.515139     -0.073281      0.431760
  N      -3.672037     -0.057077      0.403095
  C      -0.719510      2.014369     -1.400998
  S      -0.385572      3.514000     -0.456131
  C      -1.982056      3.796932      0.234361
  O      -2.231926      4.683210      0.989364
  H      -0.619445     -0.817394     -0.102477
  H      -0.656575     -0.157212      2.501504
  H      -0.876427      1.489170      1.926085
  H       1.487473     -0.328501      1.233310
  H       1.303436      1.345016      0.696689
  H       2.785725      1.219358      2.676889
  H       1.317955      2.116710      3.061443
  H       1.502149      0.450043      3.610604
  H      -0.847936      1.165713     -0.683525
  H       0.136044      1.812374     -2.034782
  H      -1.627850      2.118223     -1.986189
  H      -2.711018      3.051783     -0.120545
22
Coordinates from ORCA-job ts2.irc_IRC_Full E -31.212833676770
  C       1.708273      1.137482      2.792519
  C       1.068007      0.643382      1.501398
  C      -0.445166      0.514767      1.663741
  C      -1.141695     -0.075136      0.485018
  C      -2.515641     -0.077038      0.434271
  N      -3.672127     -0.054495      0.399975
  C      -0.719842      2.016594     -1.404192
  S      -0.385616      3.515974     -0.456939
  C      -1.981900      3.797395      0.234476
  O      -2.232374      4.683131      0.989788
  H      -0.618500     -0.819594     -0.102749
  H      -0.653578     -0.154935      2.509351
  H      -0.877674      1.487288      1.924609
  H       1.487991     -0.328846      1.233072
  H       1.301639      1.344591      0.696597
  H       2.785749      1.219424      2.676586
  H       1.317854      2.116619      3.061036
  H       1.502396      0.450059      3.610598
  H      -0.847362      1.168996     -0.688410
  H       0.136477      1.815984     -2.038030
  H      -1.626654      2.121701     -1.989645
  H      -2.710221      3.051545     -0.120242
22
Coordinates from ORCA-job ts2.irc_IRC_Full E -31.213076419320
  C       1.708290      1.137387      2.792566
  C       1.067858      0.642663      1.501064
  C      -0.445709      0.512137      1.667034
  C      -1.140585     -0.084278      0.490886
  C      -2.517012     -0.080438      0.436760
  N      -3.673498     -0.052115      0.396868
  C      -0.719001      2.018415     -1.406580
  S      -0.385775      3.517831     -0.457905
  C      -1.981677      3.797769      0.234494
  O      -2.232810      4.683109      0.990298
  H      -0.618993     -0.820227     -0.101340
  H      -0.650599     -0.152317      2.516397
  H      -0.878859      1.485542      1.923313
  H       1.488443     -0.329181      1.232926
  H       1.299635      1.343820      0.696853
  H       2.785821      1.219485      2.676175
  H       1.317792      2.116428      3.060570
  H       1.502759      0.450174      3.610561
  H      -0.846953      1.172237     -0.693425
  H       0.136645      1.819784     -2.041115
  H      -1.626292      2.125391     -1.993626
  H      -2.709445      3.051275     -0.119948
22
Coordinates from ORCA-job ts2.irc_IRC_Full E -31.213278463320
  C       1.708528      1.137219      2.791920
  C       1.067110      0.641643      1.502287
  C      -0.445043      0.510115      1.668668
  C      -1.145473     -0.089416      0.498393
  C      -2.516808     -0.083572      0.438778
  N      -3.672361     -0.050021      0.394201
  C      -0.719917      2.020758     -1.409737
  S      -0.385814      3.519651     -0.458759
  C      -1.981558      3.798159      0.234578
  O      -2.233119      4.682940      0.990663
  H      -0.617558     -0.823549     -0.101649
  H      -0.648141     -0.150492      2.523465
  H      -0.880105      1.483808      1.922106
  H       1.488897     -0.329584      1.232754
  H       1.297760      1.343497      0.696574
  H       2.785820      1.219562      2.675814
  H       1.317671      2.116372      3.060173
  H       1.503106      0.450161      3.610685
  H      -0.846646      1.174579     -0.697655
  H       0.137232      1.823313     -2.044180
  H      -1.624822      2.128740     -1.996583
  H      -2.708722      3.051007     -0.119671
22
Coordinates from ORCA-job ts2.irc_IRC_Full E -31.213371181380
  C       1.708494      1.137191      2.792092
  C       1.067155      0.641419      1.501893
  C      -0.445492      0.509222      1.670119
  C      -1.143747     -0.093119      0.499894
  C      -2.517773     -0.084638      0.439636
  N      -3.672957     -0.049254      0.393086
  C      -0.719321      2.021334     -1.410496
  S      -0.385901      3.520311     -0.459153
  C      -1.981465      3.798279      0.234573
  O      -2.233257      4.682915      0.990860
  H      -0.618181     -0.823415     -0.100489
  H      -0.647135     -0.149534      2.525797
  H      -0.880496      1.483150      1.921719
  H       1.489027     -0.329713      1.232748
  H       1.296921      1.343087      0.696779
  H       2.785882      1.219591      2.675603
  H       1.317664      2.116271      3.059979
  H       1.503312      0.450251      3.610662
  H      -0.846569      1.175680     -0.699528
  H       0.137195      1.824797     -2.045230
  H      -1.624872      2.130177     -1.998151
  H      -2.708447      3.050889     -0.119566
22
Coordinates from ORCA-job ts2.irc_IRC_Full E -31.213419659230
  C       1.708523      1.137165      2.792053
  C       1.067070      0.641236      1.501949
  C      -0.445538      0.508715      1.670701
  C      -1.143951     -0.094658      0.501156
  C      -2.517361     -0.085286      0.440118
  N      -3.673479     -0.048803      0.392458
  C      -0.719270      2.021780     -1.411067
  S      -0.385932      3.520700     -0.459369
  C      -1.981421      3.798340      0.234568
  O      -2.233329      4.682896      0.990970
  H      -0.618184     -0.823815     -0.100160
  H      -0.646594     -0.149066      2.527226
  H      -0.880757      1.482782      1.921493
  H       1.489108     -0.329802      1.232733
  H       1.296456      1.342932      0.696798
  H       2.785897      1.219610      2.675493
  H       1.317649      2.116238      3.059877
  H       1.503421      0.450273      3.610679
  H      -0.846528      1.176221     -0.700534
  H       0.137262      1.825631     -2.045880
  H      -1.624719      2.130979     -1.998932
  H      -2.708288      3.050822     -0.119505
22
Coordinates from ORCA-job ts2.irc_IRC_Full E -31.213476474000
  C       1.708562      1.137130      2.791995
  C       1.066952      0.640991      1.502043
  C      -0.445581      0.508077      1.671435
  C      -1.144245     -0.096597      0.502822
  C      -2.517186     -0.086110      0.440719
  N      -3.673790     -0.048235      0.391661
  C      -0.719230      2.022366     -1.411823
  S      -0.385970      3.521205     -0.459647
  C      -1.981369      3.798430      0.234573
  O      -2.233418      4.682857      0.991101
  H      -0.618158     -0.824377     -0.099746
  H      -0.645906     -0.148475      2.529077
  H      -0.881095      1.482299      1.921204
  H       1.489211     -0.329919      1.232716
  H       1.295851      1.342735      0.696817
  H       2.785918      1.219636      2.675347
  H       1.317628      2.116196      3.059746
  H       1.503568      0.450303      3.610704
  H      -0.846476      1.176911     -0.701836
  H       0.137355      1.826715     -2.046724
  H      -1.624503      2.132019     -1.999932
  H      -2.708082      3.050733     -0.119425
22
Coordinates from ORCA-job ts2.irc_IRC_Full E -31.213533922570
  C       1.708605      1.137094      2.791932
  C       1.066822      0.640732      1.502152
  C      -0.445617      0.507427      1.672192
  C      -1.144536     -0.098586      0.504568
  C      -2.517359     -0.086949      0.441320
  N      -3.673777     -0.047659      0.390849
  C      -0.719202      2.022982     -1.412619
  S      -0.386009      3.521732     -0.459937
  C      -1.981317      3.798526      0.234582
  O      -2.233506      4.682810      0.991234
  H      -0.618118     -0.824990     -0.099311
  H      -0.645201     -0.147871      2.530998
  H      -0.881446      1.481794      1.920908
  H       1.489316     -0.330044      1.232701
  H       1.295217      1.342529      0.696834
  H       2.785941      1.219664      2.675192
  H       1.317607      2.116153      3.059609
  H       1.503725      0.450335      3.610732
  H      -0.846425      1.177622     -0.703195
  H       0.137454      1.827847     -2.047604
  H      -1.624271      2.133104     -2.000968
  H      -2.707869      3.050639     -0.119342
22
Coordinates from ORCA-job ts2.irc_IRC_Full E -31.213590308640
  C       1.708650      1.137057      2.791868
  C       1.066689      0.640471      1.502266
  C      -0.445655      0.506783      1.672947
  C      -1.144847     -0.100550      0.506304
  C      -2.517328     -0.087783      0.441924
  N      -3.673924     -0.047086      0.390031
  C      -0.719176      2.023606     -1.413425
  S      -0.386049      3.522258     -0.460228
  C      -1.981264      3.798616      0.234587
  O      -2.233594      4.682764      0.991372
  H      -0.618079     -0.825624     -0.098851
  H      -0.644507     -0.147276      2.532910
  H      -0.881797      1.481286      1.920622
  H       1.489417     -0.330171      1.232690
  H       1.294575      1.342320      0.696850
  H       2.785965      1.219694      2.675031
  H       1.317587      2.116110      3.059471
  H       1.503891      0.450368      3.610762
  H      -0.846380      1.178319     -0.704555
  H       0.137555      1.828987     -2.048485
  H      -1.624037      2.134198     -2.002005
  H      -2.707655      3.050543     -0.119259
22
Coordinates from ORCA-job ts2.irc_IRC_Full E -31.213645652940
  C       1.708697      1.137021      2.791804
  C       1.066553      0.640208      1.502383
  C      -0.445692      0.506144      1.673706
  C      -1.145118     -0.102498      0.508029
  C      -2.517555     -0.088597      0.442506
  N      -3.673835     -0.046530      0.389228
  C      -0.719151      2.024233     -1.414232
  S      -0.386089      3.522783     -0.460520
  C      -1.981212      3.798708      0.234595
  O      -2.233679      4.682711      0.991507
  H      -0.618041     -0.826274     -0.098364
  H      -0.643826     -0.146690      2.534804
  H      -0.882149      1.480780      1.920345
  H       1.489513     -0.330301      1.232683
  H       1.293927      1.342106      0.696868
  H       2.785991      1.219726      2.674864
  H       1.317568      2.116067      3.059333
  H       1.504063      0.450403      3.610795
  H      -0.846339      1.179008     -0.705922
  H       0.137656      1.830134     -2.049367
  H      -1.623804      2.135299     -2.003044
  H      -2.707442      3.050445     -0.119175
22
Coordinates from ORCA-job ts2.irc_IRC_Full E -31.213700253650
  C       1.708746      1.136985      2.791740
  C       1.066415      0.639942      1.502504
  C      -0.445735      0.505504      1.674469
  C      -1.145416     -0.104435      0.509750
  C      -2.517521     -0.089412      0.443098
  N      -3.673957     -0.045970      0.388413
  C      -0.719127      2.024870     -1.415048
  S      -0.386130      3.523310     -0.460814
  C      -1.981159      3.798796      0.234602
  O      -2.233763      4.682657      0.991646
  H      -0.618005     -0.826943     -0.097851
  H      -0.643152     -0.146107      2.536697
  H      -0.882503      1.480272      1.920076
  H       1.489606     -0.330434      1.232680
  H       1.293269      1.341887      0.696886
  H       2.786018      1.219760      2.674690
  H       1.317551      2.116025      3.059193
  H       1.504244      0.450440      3.610830
  H      -0.846304      1.179690     -0.707299
  H       0.137758      1.831295     -2.050255
  H      -1.623571      2.136413     -2.004092
  H      -2.707228      3.050346     -0.119091
22
Coordinates from ORCA-job ts2.irc_IRC_Full E -31.213753873380
  C       1.708797      1.136950      2.791676
  C       1.066274      0.639675      1.502629
  C      -0.445776      0.504869      1.675235
  C      -1.145675     -0.106358      0.511462
  C      -2.517730     -0.090208      0.443670
  N      -3.673858     -0.045427      0.387612
  C      -0.719104      2.025511     -1.415868
  S      -0.386171      3.523836     -0.461109
  C      -1.981106      3.798883      0.234610
  O      -2.233845      4.682600      0.991786
  H      -0.617970     -0.827628     -0.097311
  H      -0.642490     -0.145533      2.538575
  H      -0.882856      1.479764      1.919817
  H       1.489693     -0.330570      1.232682
  H       1.292606      1.341664      0.696905
  H       2.786046      1.219795      2.674511
  H       1.317534      2.115982      3.059052
  H       1.504432      0.450479      3.610868
  H      -0.846272      1.180365     -0.708683
  H       0.137862      1.832461     -2.051144
  H      -1.623339      2.137534     -2.005142
  H      -2.707014      3.050244     -0.119007
22
Coordinates from ORCA-job ts2.irc_IRC_Full E -31.213806743040
  C       1.708850      1.136915      2.791611
  C       1.066131      0.639406      1.502758
  C      -0.445824      0.504233      1.676004
  C      -1.145961     -0.108269      0.513169
  C      -2.517693     -0.091004      0.444250
  N      -3.673956     -0.044881      0.386799
  C      -0.719081      2.026161     -1.416697
  S      -0.386212      3.524363     -0.461407
  C      -1.981053      3.798968      0.234618
  O      -2.233927      4.682540      0.991928
  H      -0.617938     -0.828331     -0.096744
  H      -0.641837     -0.144963      2.540450
  H      -0.883212      1.479255      1.919567
  H       1.489776     -0.330709      1.232688
  H       1.291934      1.341436      0.696925
  H       2.786076      1.219833      2.674325
  H       1.317519      2.115940      3.058911
  H       1.504629      0.450520      3.610907
  H      -0.846245      1.181032     -0.710076
  H       0.137967      1.833639     -2.052038
  H      -1.623107      2.138666     -2.006199
  H      -2.706800      3.050140     -0.118922
22
Coordinates from ORCA-job ts2.irc_IRC_Full E -31.213858691730
  C       1.708906      1.136881      2.791546
  C       1.065985      0.639135      1.502891
  C      -0.445871      0.503602      1.676776
  C      -1.146210     -0.110166      0.514867
  C      -2.517884     -0.091782      0.444811
  N      -3.673847     -0.044351      0.385999
  C      -0.719058      2.026815     -1.417529
  S      -0.386254      3.524888     -0.461704
  C      -1.981000      3.799050      0.234625
  O      -2.234007      4.682478      0.992071
  H      -0.617906     -0.829050     -0.096150
  H      -0.641195     -0.144402      2.542309
  H      -0.883568      1.478747      1.919327
  H       1.489854     -0.330852      1.232699
  H       1.291256      1.341203      0.696945
  H       2.786107      1.219872      2.674132
  H       1.317505      2.115898      3.058769
  H       1.504834      0.450563      3.610949
  H      -0.846222      1.181693     -0.711477
  H       0.138073      1.834824     -2.052935
  H      -1.622876      2.139807     -2.007260
  H      -2.706587      3.050035     -0.118837
22
Coordinates from ORCA-job ts2.irc_IRC_Full E -31.213909888100
  C       1.708964      1.136847      2.791482
  C       1.065836      0.638861      1.503028
  C      -0.445923      0.502970      1.677549
  C      -1.146485     -0.112048      0.516559
  C      -2.517842     -0.092561      0.445379
  N      -3.673923     -0.043818      0.385189
  C      -0.719036      2.027479     -1.418370
  S      -0.386296      3.525414     -0.462003
  C      -1.980947      3.799132      0.234635
  O      -2.234085      4.682412      0.992216
  H      -0.617876     -0.829788     -0.095529
  H      -0.640562     -0.143847      2.544163
  H      -0.883925      1.478238      1.919096
  H       1.489927     -0.330997      1.232715
  H       1.290571      1.340966      0.696967
  H       2.786140      1.219914      2.673933
  H       1.317493      2.115856      3.058626
  H       1.505047      0.450608      3.610994
  H      -0.846203      1.182347     -0.712886
  H       0.138180      1.836019     -2.053837
  H      -1.622645      2.140958     -2.008327
  H      -2.706373      3.049927     -0.118752
22
Coordinates from ORCA-job ts2.irc_IRC_Full E -31.213960219120
  C       1.709024      1.136814      2.791417
  C       1.065684      0.638587      1.503168
  C      -0.445976      0.502344      1.678327
  C      -1.146724     -0.113919      0.518243
  C      -2.518016     -0.093321      0.445929
  N      -3.673804     -0.043300      0.384390
  C      -0.719015      2.028146     -1.419215
  S      -0.386339      3.525939     -0.462302
  C      -1.980894      3.799209      0.234643
  O      -2.234163      4.682344      0.992364
  H      -0.617847     -0.830541     -0.094882
  H      -0.639941     -0.143300      2.546003
  H      -0.884283      1.477729      1.918875
  H       1.489994     -0.331145      1.232736
  H       1.289882      1.340724      0.696990
  H       2.786175      1.219958      2.673727
  H       1.317483      2.115815      3.058484
  H       1.505268      0.450655      3.611041
  H      -0.846188      1.182996     -0.714305
  H       0.138288      1.837221     -2.054742
  H      -1.622416      2.142117     -2.009398
  H      -2.706159      3.049818     -0.118666
22
Coordinates from ORCA-job ts2.irc_IRC_Full E -31.214009799130
  C       1.709087      1.136783      2.791352
  C       1.065529      0.638310      1.503313
  C      -0.446033      0.501718      1.679105
  C      -1.146987     -0.115773      0.519920
  C      -2.517971     -0.094081      0.446484
  N      -3.673858     -0.042781      0.383583
  C      -0.718994      2.028821     -1.420068
  S      -0.386381      3.526463     -0.462602
  C      -1.980840      3.799286      0.234654
  O      -2.234239      4.682271      0.992513
  H      -0.617819     -0.831312     -0.094208
  H      -0.639330     -0.142760      2.547835
  H      -0.884642      1.477220      1.918665
  H       1.490056     -0.331297      1.232761
  H       1.289185      1.340477      0.697013
  H       2.786211      1.220005      2.673515
  H       1.317474      2.115775      3.058340
  H       1.505498      0.450704      3.611090
  H      -0.846177      1.183636     -0.715732
  H       0.138398      1.838433     -2.055651
  H      -1.622186      2.143286     -2.010475
  H      -2.705945      3.049706     -0.118580
22
Coordinates from ORCA-job ts2.irc_IRC_Full E -31.214058565570
  C       1.709153      1.136752      2.791286
  C       1.065372      0.638032      1.503461
  C      -0.446091      0.501097      1.679888
  C      -1.147217     -0.117617      0.521590
  C      -2.518129     -0.094824      0.447022
  N      -3.673729     -0.042276      0.382786
  C      -0.718973      2.029501     -1.420925
  S      -0.386424      3.526986     -0.462902
  C      -1.980787      3.799359      0.234664
  O      -2.234314      4.682197      0.992664
  H      -0.617791     -0.832098     -0.093507
  H      -0.638730     -0.142229      2.549654
  H      -0.885001      1.476711      1.918464
  H       1.490113     -0.331451      1.232792
  H       1.288484      1.340226      0.697038
  H       2.786249      1.220054      2.673296
  H       1.317467      2.115735      3.058197
  H       1.505736      0.450756      3.611142
  H      -0.846169      1.184273     -0.717168
  H       0.138508      1.839651     -2.056564
  H      -1.621958      2.144462     -2.011555
  H      -2.705732      3.049593     -0.118494
22
Coordinates from ORCA-job ts2.irc_IRC_Full E -31.214106578920
  C       1.709220      1.136722      2.791221
  C       1.065211      0.637752      1.503613
  C      -0.446155      0.500476      1.680670
  C      -1.147470     -0.119442      0.523251
  C      -2.518078     -0.095566      0.447564
  N      -3.673764     -0.041770      0.381981
  C      -0.718953      2.030188     -1.421790
  S      -0.386467      3.527508     -0.463201
  C      -1.980733      3.799432      0.234676
  O      -2.234388      4.682118      0.992817
  H      -0.617765     -0.832903     -0.092781
  H      -0.638141     -0.141705      2.551462
  H      -0.885362      1.476202      1.918275
  H       1.490164     -0.331609      1.232829
  H       1.287778      1.339970      0.697063
  H       2.786288      1.220105      2.673069
  H       1.317462      2.115696      3.058053
  H       1.505983      0.450809      3.611195
  H      -0.846166      1.184902     -0.718612
  H       0.138619      1.840877     -2.057481
  H      -1.621730      2.145648     -2.012641
  H      -2.705519      3.049478     -0.118408
22
Coordinates from ORCA-job ts2.irc_IRC_Full E -31.214153834940
  C       1.709290      1.136693      2.791156
  C       1.065048      0.637471      1.503770
  C      -0.446218      0.499861      1.681458
  C      -1.147689     -0.121257      0.524905
  C      -2.518222     -0.096292      0.448090
  N      -3.673628     -0.041277      0.381186
  C      -0.718934      2.030879     -1.422661
  S      -0.386510      3.528029     -0.463501
  C      -1.980680      3.799500      0.234687
  O      -2.234461      4.682037      0.992973
  H      -0.617738     -0.833722     -0.092028
  H      -0.637564     -0.141190      2.553257
  H      -0.885722      1.475694      1.918096
  H       1.490208     -0.331770      1.232871
  H       1.287068      1.339709      0.697090
  H       2.786329      1.220159      2.672836
  H       1.317460      2.115658      3.057910
  H       1.506239      0.450865      3.611252
  H      -0.846165      1.185528     -0.720066
  H       0.138732      1.842110     -2.058402
  H      -1.621503      2.146842     -2.013732
  H      -2.705305      3.049362     -0.118321
22
Coordinates from ORCA-job ts2.irc_IRC_Full E -31.214200347360
  C       1.709363      1.136665      2.791090
  C       1.064883      0.637188      1.503930
  C      -0.446287      0.499248      1.682244
  C      -1.147935     -0.123053      0.526550
  C      -2.518166     -0.097015      0.448619
  N      -3.673644     -0.040784      0.380384
  C      -0.718914      2.031578     -1.423538
  S      -0.386553      3.528547     -0.463799
  C      -1.980626      3.799567      0.234701
  O      -2.234533      4.681951      0.993129
  H      -0.617713     -0.834560     -0.091249
  H      -0.636997     -0.140683      2.555042
  H      -0.886084      1.475187      1.917929
  H       1.490247     -0.331934      1.232918
  H       1.286353      1.339444      0.697118
  H       2.786372      1.220216      2.672596
  H       1.317459      2.115620      3.057767
  H       1.506504      0.450922      3.611310
  H      -0.846168      1.186145     -0.721527
  H       0.138845      1.843350     -2.059327
  H      -1.621276      2.148044     -2.014827
  H      -2.705093      3.049243     -0.118235
22
Coordinates from ORCA-job ts2.irc_IRC_Full E -31.214246140290
  C       1.709438      1.136639      2.791025
  C       1.064713      0.636904      1.504095
  C      -0.446357      0.498639      1.683035
  C      -1.148145     -0.124839      0.528189
  C      -2.518296     -0.097723      0.449132
  N      -3.673497     -0.040304      0.379591
  C      -0.718895      2.032281     -1.424420
  S      -0.386596      3.529065     -0.464097
  C      -1.980572      3.799630      0.234714
  O      -2.234604      4.681863      0.993289
  H      -0.617688     -0.835412     -0.090444
  H      -0.636442     -0.140186      2.556813
  H      -0.886446      1.474680      1.917772
  H       1.490280     -0.332102      1.232972
  H       1.285634      1.339173      0.697147
  H       2.786416      1.220276      2.672348
  H       1.317461      2.115584      3.057623
  H       1.506778      0.450983      3.611371
  H      -0.846174      1.186761     -0.722999
  H       0.138959      1.844598     -2.060257
  H      -1.621051      2.149255     -2.015926
  H      -2.704881      3.049123     -0.118148
22
Coordinates from ORCA-job ts2.irc_IRC_Full E -31.214291205890
  C       1.709516      1.136613      2.790960
  C       1.064542      0.636619      1.504263
  C      -0.446432      0.498033      1.683825
  C      -1.148382     -0.126605      0.529818
  C      -2.518235     -0.098429      0.449648
  N      -3.673496     -0.039823      0.378791
  C      -0.718876      2.032991     -1.425310
  S      -0.386639      3.529580     -0.464395
  C      -1.980518      3.799692      0.234730
  O      -2.234673      4.681771      0.993451
  H      -0.617663     -0.836281     -0.089615
  H      -0.635898     -0.139697      2.558572
  H      -0.886809      1.474175      1.917628
  H       1.490306     -0.332273      1.233031
  H       1.284912      1.338899      0.697178
  H       2.786462      1.220338      2.672094
  H       1.317465      2.115548      3.057481
  H       1.507061      0.451045      3.611435
  H      -0.846185      1.187367     -0.724476
  H       0.139074      1.845851     -2.061190
  H      -1.620826      2.150473     -2.017030
  H      -2.704669      3.049001     -0.118061
22
Coordinates from ORCA-job ts2.irc_IRC_Full E -31.214335587760
  C       1.709596      1.136589      2.790894
  C       1.064368      0.636333      1.504436
  C      -0.446507      0.497431      1.684620
  C      -1.148583     -0.128362      0.531440
  C      -2.518352     -0.099119      0.450148
  N      -3.673341     -0.039355      0.378000
  C      -0.718858      2.033705     -1.426205
  S      -0.386681      3.530093     -0.464691
  C      -1.980465      3.799750      0.234745
  O      -2.234742      4.681675      0.993615
  H      -0.617639     -0.837165     -0.088759
  H      -0.635365     -0.139217      2.560319
  H      -0.887173      1.473670      1.917494
  H       1.490325     -0.332447      1.233096
  H       1.284186      1.338619      0.697209
  H       2.786510      1.220404      2.671832
  H       1.317472      2.115514      3.057338
  H       1.507353      0.451110      3.611500
  H      -0.846197      1.187972     -0.725966
  H       0.139189      1.847111     -2.062128
  H      -1.620602      2.151699     -2.018138
  H      -2.704458      3.048877     -0.117974
22
Coordinates from ORCA-job ts2.irc_IRC_Full E -31.214379259500
  C       1.709679      1.136567      2.790829
  C       1.064191      0.636046      1.504612
  C      -0.446588      0.496832      1.685413
  C      -1.148812     -0.130097      0.533052
  C      -2.518287     -0.099807      0.450651
  N      -3.673323     -0.038886      0.377203
  C      -0.718840      2.034426     -1.427106
  S      -0.386724      3.530603     -0.464985
  C      -1.980411      3.799806      0.234763
  O      -2.234810      4.681575      0.993781
  H      -0.617614     -0.838065     -0.087879
  H      -0.634844     -0.138747      2.562052
  H      -0.887537      1.473166      1.917372
  H       1.490338     -0.332624      1.233168
  H       1.283457      1.338335      0.697242
  H       2.786559      1.220473      2.671563
  H       1.317481      2.115480      3.057197
  H       1.507655      0.451178      3.611569
  H      -0.846214      1.188569     -0.727461
  H       0.139306      1.848377     -2.063070
  H      -1.620379      2.152932     -2.019250
  H      -2.704247      3.048752     -0.117887
22
Coordinates from ORCA-job ts2.irc_IRC_Full E -31.214422287940
  C       1.709764      1.136546      2.790763
  C       1.064011      0.635757      1.504793
  C      -0.446670      0.496238      1.686211
  C      -1.149005     -0.131824      0.534658
  C      -2.518391     -0.100479      0.451136
  N      -3.673160     -0.038430      0.376414
  C      -0.718822      2.035150     -1.428013
  S      -0.386766      3.531112     -0.465279
  C      -1.980358      3.799858      0.234781
  O      -2.234876      4.681472      0.993951
  H      -0.617590     -0.838980     -0.086974
  H      -0.634334     -0.138286      2.563772
  H      -0.887903      1.472664      1.917262
  H       1.490345     -0.332805      1.233246
  H       1.282725      1.338046      0.697276
  H       2.786610      1.220544      2.671286
  H       1.317493      2.115448      3.057055
  H       1.507966      0.451248      3.611639
  H      -0.846232      1.189164     -0.728967
  H       0.139422      1.849649     -2.064017
  H      -1.620156      2.154173     -2.020367
  H      -2.704037      3.048625     -0.117801
22
Coordinates from ORCA-job ts2.irc_IRC_Full E -31.214464615350
  C       1.709853      1.136526      2.790698
  C       1.063829      0.635468      1.504978
  C      -0.446756      0.495648      1.687007
  C      -1.149224     -0.133529      0.536253
  C      -2.518322     -0.101149      0.451625
  N      -3.673130     -0.037973      0.375618
  C      -0.718804      2.035880     -1.428926
  S      -0.386808      3.531616     -0.465570
  C      -1.980304      3.799908      0.234801
  O      -2.234942      4.681364      0.994122
  H      -0.617566     -0.839911     -0.086046
  H      -0.633835     -0.137835      2.565479
  H      -0.888268      1.472163      1.917164
  H       1.490344     -0.332988      1.233330
  H       1.281992      1.337753      0.697312
  H       2.786663      1.220619      2.671002
  H       1.317507      2.115418      3.056915
  H       1.508286      0.451320      3.611712
  H      -0.846255      1.189751     -0.730479
  H       0.139540      1.850926     -2.064967
  H      -1.619935      2.155420     -2.021488
  H      -2.703828      3.048496     -0.117714
22
Coordinates from ORCA-job ts2.irc_IRC_Full E -31.214506330480
  C       1.709943      1.136508      2.790633
  C       1.063643      0.635178      1.505166
  C      -0.446844      0.495062      1.687807
  C      -1.149413     -0.135224      0.537842
  C      -2.518414     -0.101803      0.452097
  N      -3.672958     -0.037528      0.374832
  C      -0.718787      2.036614     -1.429844
  S      -0.386850      3.532119     -0.465860
  C      -1.980250      3.799953      0.234821
  O      -2.235006      4.681254      0.994297
  H      -0.617541     -0.840857     -0.085092
  H      -0.633347     -0.137394      2.567173
  H      -0.888635      1.471662      1.917078
  H       1.490337     -0.333176      1.233422
  H       1.281256      1.337455      0.697348
  H       2.786717      1.220697      2.670710
  H       1.317524      2.115388      3.056775
  H       1.508616      0.451395      3.611787
  H      -0.846279      1.190336     -0.732003
  H       0.139658      1.852209     -2.065922
  H      -1.619714      2.156675     -2.022612
  H      -2.703619      3.048365     -0.117628
22
Coordinates from ORCA-job ts2.irc_IRC_Full E -31.214547370340
  C       1.710037      1.136492      2.790568
  C       1.063456      0.634888      1.505359
  C      -0.446937      0.494479      1.688606
  C      -1.149624     -0.136898      0.539419
  C      -2.518341     -0.102455      0.452572
  N      -3.672913     -0.037083      0.374038
  C      -0.718770      2.037354     -1.430769
  S      -0.386891      3.532618     -0.466148
  C      -1.980197      3.799997      0.234844
  O      -2.235070      4.681137      0.994473
  H      -0.617517     -0.841817     -0.084116
  H      -0.632872     -0.136963      2.568852
  H      -0.889001      1.471164      1.917004
  H       1.490322     -0.333366      1.233519
  H       1.280518      1.337152      0.697386
  H       2.786773      1.220779      2.670411
  H       1.317544      2.115360      3.056637
  H       1.508955      0.451473      3.611865
  H      -0.846307      1.190913     -0.733532
  H       0.139776      1.853496     -2.066881
  H      -1.619494      2.157936     -2.023740
  H      -2.703412      3.048233     -0.117542
22
Coordinates from ORCA-job ts2.irc_IRC_Full E -31.214587821350
  C       1.710133      1.136477      2.790503
  C       1.063265      0.634596      1.505556
  C      -0.447031      0.493902      1.689408
  C      -1.149806     -0.138562      0.540990
  C      -2.518422     -0.103091      0.453030
  N      -3.672734     -0.036649      0.373253
  C      -0.718753      2.038097     -1.431699
  S      -0.386932      3.533114     -0.466434
  C      -1.980143      3.800036      0.234867
  O      -2.235132      4.681018      0.994653
  H      -0.617493     -0.842791     -0.083116
  H      -0.632406     -0.136541      2.570519
  H      -0.889369      1.470667      1.916942
  H       1.490301     -0.333560      1.233624
  H       1.279779      1.336844      0.697426
  H       2.786831      1.220863      2.670104
  H       1.317567      2.115334      3.056499
  H       1.509304      0.451553      3.611945
  H      -0.846338      1.191489     -0.735072
  H       0.139895      1.854789     -2.067845
  H      -1.619275      2.159205     -2.024873
  H      -2.703205      3.048099     -0.117456
22
Coordinates from ORCA-job ts2.irc_IRC_Full E -31.214627622250
  C       1.710231      1.136464      2.790438
  C       1.063072      0.634304      1.505757
  C      -0.447130      0.493328      1.690209
  C      -1.150009     -0.140204      0.542550
  C      -2.518346     -0.103725      0.453490
  N      -3.672676     -0.036215      0.372461
  C      -0.718736      2.038845     -1.432634
  S      -0.386973      3.533606     -0.466717
  C      -1.980089      3.800073      0.234893
  O      -2.235193      4.680892      0.994835
  H      -0.617468     -0.843780     -0.082093
  H      -0.631953     -0.136130      2.572171
  H      -0.889737      1.470172      1.916892
  H       1.490273     -0.333757      1.233736
  H       1.279039      1.336532      0.697467
  H       2.786890      1.220952      2.669790
  H       1.317593      2.115309      3.056362
  H       1.509663      0.451636      3.612028
  H      -0.846371      1.192058     -0.736617
  H       0.140014      1.856086     -2.068812
  H      -1.619056      2.160479     -2.026008
  H      -2.702999      3.047963     -0.117371
22
Coordinates from ORCA-job ts2.irc_IRC_Full E -31.214666856830
  C       1.710332      1.136453      2.790373
  C       1.062876      0.634012      1.505962
  C      -0.447230      0.492760      1.691013
  C      -1.150185     -0.141836      0.544104
  C      -2.518417     -0.104343      0.453934
  N      -3.672490     -0.035792      0.371678
  C      -0.718720      2.039597     -1.433575
  S      -0.387013      3.534095     -0.466998
  C      -1.980036      3.800104      0.234918
  O      -2.235254      4.680765      0.995021
  H      -0.617444     -0.844781     -0.081048
  H      -0.631510     -0.135728      2.573810
  H      -0.890107      1.469679      1.916855
  H       1.490237     -0.333958      1.233855
  H       1.278297      1.336215      0.697509
  H       2.786951      1.221044      2.669468
  H       1.317622      2.115286      3.056227
  H       1.510031      0.451721      3.612113
  H      -0.846407      1.192625     -0.738173
  H       0.140134      1.857388     -2.069784
  H      -1.618839      2.161760     -2.027147
  H      -2.702794      3.047826     -0.117286
22
Coordinates from ORCA-job ts2.irc_IRC_Full E -31.214705465790
  C       1.710436      1.136444      2.790308
  C       1.062678      0.633719      1.506171
  C      -0.447336      0.492195      1.691816
  C      -1.150382     -0.143447      0.545646
  C      -2.518337     -0.104959      0.454379
  N      -3.672420     -0.035368      0.370887
  C      -0.718703      2.040353     -1.434522
  S      -0.387052      3.534579     -0.467276
  C      -1.979982      3.800135      0.234948
  O      -2.235313      4.680630      0.995208
  H      -0.617420     -0.845797     -0.079981
  H      -0.631078     -0.135338      2.575434
  H      -0.890476      1.469187      1.916830
  H       1.490195     -0.334162      1.233981
  H       1.277555      1.335894      0.697552
  H       2.787014      1.221139      2.669138
  H       1.317653      2.115264      3.056092
  H       1.510409      0.451810      3.612200
  H      -0.846445      1.193184     -0.739734
  H       0.140253      1.858693     -2.070760
  H      -1.618623      2.163047     -2.028289
  H      -2.702590      3.047687     -0.117202
22
Coordinates from ORCA-job ts2.irc_IRC_Full E -31.214743530080
  C       1.710543      1.136436      2.790244
  C       1.062476      0.633425      1.506385
  C      -0.447442      0.491636      1.692622
  C      -1.150551     -0.145048      0.547181
  C      -2.518399     -0.105559      0.454808
  N      -3.672229     -0.034956      0.370105
  C      -0.718687      2.041112     -1.435473
  S      -0.387091      3.535060     -0.467552
  C      -1.979929      3.800158      0.234975
  O      -2.235371      4.680493      0.995401
  H      -0.617395     -0.846825     -0.078892
  H      -0.630657     -0.134957      2.577045
  H      -0.890847      1.468697      1.916817
  H       1.490145     -0.334369      1.234114
  H       1.276812      1.335568      0.697597
  H       2.787079      1.221238      2.668801
  H       1.317688      2.115244      3.055959
  H       1.510797      0.451901      3.612290
  H      -0.846486      1.193742     -0.741306
  H       0.140373      1.860004     -2.071741
  H      -1.618407      2.164340     -2.029435
  H      -2.702387      3.047547     -0.117119
