7
Coordinates from ORCA-job ts3.irc_IRC_Full E -13.040103963800
  C      -0.946717      0.256328     -2.468766
  S      -1.373592     -0.286645     -0.756095
  C       0.079766      0.131789     -0.056171
  O       0.617229      0.113646      0.994032
  H       0.065410      0.646060     -2.439336
  H      -1.648782      1.023877     -2.775913
  H      -1.013532     -0.599088     -3.132175
7
Coordinates from ORCA-job ts3.irc_IRC_Full E -13.040082504490
  C      -0.946895      0.256142     -2.468187
  S      -1.375099     -0.287274     -0.755906
  C       0.078576      0.131574     -0.057445
  O       0.618404      0.114647      0.991649
  H       0.065461      0.645446     -2.436436
  H      -1.647973      1.024237     -2.775901
  H      -1.012692     -0.598806     -3.132199
7
Coordinates from ORCA-job ts3.irc_IRC_Full E -13.040062871380
  C      -0.946942      0.255998     -2.467662
  S      -1.376374     -0.287802     -0.755760
  C       0.077759      0.131389     -0.058169
  O       0.619220      0.115492      0.989321
  H       0.065441      0.644910     -2.434012
  H      -1.647329      1.024572     -2.775905
  H      -1.011994     -0.598593     -3.132238
7
Coordinates from ORCA-job ts3.irc_IRC_Full E -13.040047376700
  C      -0.946288      0.256007     -2.467040
  S      -1.377336     -0.288200     -0.755641
  C       0.077032      0.131266     -0.058986
  O       0.619944      0.116101      0.987889
  H       0.065018      0.644370     -2.432276
  H      -1.647063      1.025000     -2.775992
  H      -1.011525     -0.598578     -3.132379
7
Coordinates from ORCA-job ts3.irc_IRC_Full E -13.040002280720
  C      -0.947753      0.255481     -2.466387
  S      -1.380035     -0.289331     -0.755290
  C       0.074779      0.130836     -0.061334
  O       0.622137      0.117956      0.983537
  H       0.065778      0.643489     -2.426914
  H      -1.645226      1.025358     -2.775815
  H      -1.009900     -0.597822     -3.132222
7
Coordinates from ORCA-job ts3.irc_IRC_Full E -13.039949661930
  C      -0.947149      0.255274     -2.464936
  S      -1.382996     -0.290561     -0.754919
  C       0.072521      0.130395     -0.063671
  O       0.624355      0.119907      0.978804
  H       0.065286      0.642098     -2.421397
  H      -1.643926      1.026321     -2.775893
  H      -1.008309     -0.597469     -3.132413
7
Coordinates from ORCA-job ts3.irc_IRC_Full E -13.039891133670
  C      -0.947934      0.254843     -2.463983
  S      -1.385906     -0.291775     -0.754538
  C       0.070170      0.129913     -0.066032
  O       0.626635      0.121896      0.974045
  H       0.065612      0.640994     -2.415765
  H      -1.642186      1.026917     -2.775787
  H      -1.006609     -0.596822     -3.132363
7
Coordinates from ORCA-job ts3.irc_IRC_Full E -13.039827284060
  C      -0.947645      0.254582     -2.462627
  S      -1.388896     -0.293018     -0.754155
  C       0.067835      0.129427     -0.068363
  O       0.628904      0.123903      0.969195
  H       0.065282      0.639648     -2.410169
  H      -1.640748      1.027817     -2.775813
  H      -1.004951     -0.596392     -3.132492
7
Coordinates from ORCA-job ts3.irc_IRC_Full E -13.039758537710
  C      -0.948370      0.254165     -2.461666
  S      -1.391814     -0.294235     -0.753769
  C       0.065478      0.128912     -0.070642
  O       0.631176      0.125914      0.964355
  H       0.065548      0.638526     -2.404561
  H      -1.639005      1.028435     -2.775701
  H      -1.003232     -0.595751     -3.132442
7
Coordinates from ORCA-job ts3.irc_IRC_Full E -13.039684560580
  C      -0.948024      0.253913     -2.460289
  S      -1.394802     -0.295475     -0.753378
  C       0.063122      0.128392     -0.072914
  O       0.633446      0.127941      0.959450
  H       0.065159      0.637165     -2.398997
  H      -1.637564      1.029359     -2.775724
  H      -1.001555     -0.595330     -3.132573
7
Coordinates from ORCA-job ts3.irc_IRC_Full E -13.039605674250
  C      -0.948818      0.253492     -2.459376
  S      -1.397717     -0.296691     -0.752985
  C       0.060745      0.127846     -0.075139
  O       0.635725      0.129971      0.954573
  H       0.065439      0.636054     -2.393411
  H      -1.635778      1.029960     -2.775590
  H      -0.999813     -0.594665     -3.132497
7
Coordinates from ORCA-job ts3.irc_IRC_Full E -13.039532527900
  C      -0.948197      0.253320     -2.458059
  S      -1.400262     -0.297739     -0.752679
  C       0.059051      0.127393     -0.076498
  O       0.637356      0.131689      0.949909
  H       0.064903      0.634839     -2.388766
  H      -1.634665      1.030856     -2.775656
  H      -0.998405     -0.594392     -3.132676
7
Coordinates from ORCA-job ts3.irc_IRC_Full E -13.039483003880
  C      -0.946671      0.253416     -2.456876
  S      -1.401672     -0.298316     -0.752509
  C       0.057988      0.127161     -0.077552
  O       0.638380      0.132604      0.947706
  H       0.063902      0.633934     -2.386364
  H      -1.634425      1.031666     -2.775848
  H      -0.997721     -0.594499     -3.132982
7
Coordinates from ORCA-job ts3.irc_IRC_Full E -13.039330758990
  C      -0.950404      0.252340     -2.456338
  S      -1.406566     -0.300374     -0.751783
  C       0.053676      0.126119     -0.081460
  O       0.642443      0.136158      0.939382
  H       0.065743      0.632500     -2.376566
  H      -1.630580      1.032039     -2.775268
  H      -0.994530     -0.592817     -3.132392
7
Coordinates from ORCA-job ts3.irc_IRC_Full E -13.039138519490
  C      -0.948660      0.252038     -2.453253
  S      -1.412289     -0.302743     -0.751001
  C       0.049005      0.124979     -0.085710
  O       0.646851      0.140118      0.929917
  H       0.064199      0.629641     -2.366144
  H      -1.628047      1.034153     -2.775421
  H      -0.991278     -0.592221     -3.132812
7
Coordinates from ORCA-job ts3.irc_IRC_Full E -13.038917619800
  C      -0.950389      0.251206     -2.451629
  S      -1.417982     -0.305124     -0.750157
  C       0.044139      0.123715     -0.089879
  O       0.651409      0.144232      0.920106
  H       0.064674      0.627437     -2.355193
  H      -1.624362      1.035337     -2.775085
  H      -0.987708     -0.590837     -3.132587
7
Coordinates from ORCA-job ts3.irc_IRC_Full E -13.038673543000
  C      -0.949754      0.250718     -2.448950
  S      -1.423807     -0.307545     -0.749311
  C       0.039267      0.122424     -0.094002
  O       0.655956      0.148394      0.910096
  H       0.063652      0.624693     -2.344378
  H      -1.621330      1.037236     -2.775076
  H      -0.984203     -0.589953     -3.132803
7
Coordinates from ORCA-job ts3.irc_IRC_Full E -13.038408227300
  C      -0.951156      0.249944     -2.447232
  S      -1.429485     -0.309921     -0.748436
  C       0.034388      0.121080     -0.097967
  O       0.660487      0.152567      0.900052
  H       0.063791      0.622362     -2.333434
  H      -1.617672      1.038552     -2.774776
  H      -0.980571     -0.588618     -3.132632
7
Coordinates from ORCA-job ts3.irc_IRC_Full E -13.038121243120
  C      -0.950478      0.249466     -2.444549
  S      -1.435235     -0.312314     -0.747569
  C       0.029548      0.119733     -0.101884
  O       0.664965      0.156755      0.889870
  H       0.062586      0.619555     -2.322654
  H      -1.614600      1.040502     -2.774777
  H      -0.977004     -0.587730     -3.132861
7
Coordinates from ORCA-job ts3.irc_IRC_Full E -13.037812933900
  C      -0.952060      0.248680     -2.442977
  S      -1.440828     -0.314660     -0.746669
  C       0.024716      0.118354     -0.105691
  O       0.669429      0.160941      0.879703
  H       0.062667      0.617195     -2.311687
  H      -1.610838      1.041793     -2.774452
  H      -0.973305     -0.586336     -3.132653
7
Coordinates from ORCA-job ts3.irc_IRC_Full E -13.037485098150
  C      -0.951231      0.248221     -2.440227
  S      -1.446427     -0.316995     -0.745791
  C       0.019837      0.116989     -0.109663
  O       0.673919      0.165104      0.869688
  H       0.061207      0.614311     -2.301004
  H      -1.607803      1.043824     -2.774494
  H      -0.969720     -0.585489     -3.132933
7
Coordinates from ORCA-job ts3.irc_IRC_Full E -13.037128867110
  C      -0.952646      0.247462     -2.438605
  S      -1.452016     -0.319343     -0.744864
  C       0.015212      0.115617     -0.113201
  O       0.678177      0.169330      0.859008
  H       0.060936      0.611765     -2.289808
  H      -1.603974      1.045216     -2.774198
  H      -0.965907     -0.584081     -3.132757
7
Coordinates from ORCA-job ts3.irc_IRC_Full E -13.036748161290
  C      -0.952659      0.246851     -2.436150
  S      -1.457623     -0.321682     -0.743984
  C       0.010493      0.114275     -0.117051
  O       0.682541      0.173555      0.848523
  H       0.059731      0.608880     -2.278690
  H      -1.600577      1.047115     -2.774151
  H      -0.962124     -0.583028     -3.132920
7
Coordinates from ORCA-job ts3.irc_IRC_Full E -13.036391848410
  C      -0.953433      0.246373     -2.434960
  S      -1.462399     -0.323717     -0.743059
  C       0.005797      0.113075     -0.121345
  O       0.686938      0.177228      0.840525
  H       0.058932      0.606472     -2.269068
  H      -1.597211      1.048223     -2.773859
  H      -0.958842     -0.581687     -3.132659
7
Coordinates from ORCA-job ts3.irc_IRC_Full E -13.036237814810
  C      -0.953764      0.246243     -2.434744
  S      -1.463685     -0.324284     -0.742721
  C       0.003620      0.112661     -0.123779
  O       0.688955      0.178326      0.839419
  H       0.058760      0.605809     -2.266338
  H      -1.596193      1.048457     -2.773736
  H      -0.957910     -0.581246     -3.132525
7
Coordinates from ORCA-job ts3.irc_IRC_Full E -13.035725492120
  C      -0.953199      0.244559     -2.427985
  S      -1.470118     -0.326710     -0.742830
  C      -0.001006      0.111047     -0.126536
  O       0.692975      0.183577      0.823802
  H       0.057215      0.602125     -2.252092
  H      -1.593067      1.052580     -2.774613
  H      -0.953019     -0.581213     -3.134171
7
Coordinates from ORCA-job ts3.irc_IRC_Full E -13.033879085640
  C      -0.956711      0.243086     -2.425249
  S      -1.489839     -0.335196     -0.738632
  C      -0.014889      0.108000     -0.142808
  O       0.706945      0.198333      0.784897
  H       0.051377      0.589817     -2.206516
  H      -1.578459      1.057407     -2.773207
  H      -0.938642     -0.575481     -3.132911
7
Coordinates from ORCA-job ts3.irc_IRC_Full E -13.031764653240
  C      -0.956509      0.240636     -2.413051
  S      -1.505633     -0.341198     -0.738872
  C      -0.024096      0.107195     -0.159526
  O       0.716762      0.210662      0.748656
  H       0.043402      0.576833     -2.162150
  H      -1.568132      1.064838     -2.774293
  H      -0.926013     -0.573000     -3.135189
7
Coordinates from ORCA-job ts3.irc_IRC_Full E -13.029121166410
  C      -0.961094      0.238959     -2.413223
  S      -1.520785     -0.346605     -0.740715
  C      -0.028567      0.109527     -0.180977
  O       0.724072      0.221675      0.713172
  H       0.038237      0.562513     -2.107935
  H      -1.556190      1.065602     -2.772700
  H      -0.915891     -0.565705     -3.132047
7
Coordinates from ORCA-job ts3.irc_IRC_Full E -13.025675402100
  C      -0.957043      0.239289     -2.405450
  S      -1.532878     -0.349398     -0.749237
  C      -0.030211      0.114491     -0.207962
  O       0.729647      0.230946      0.681693
  H       0.033415      0.546683     -2.047736
  H      -1.552086      1.067209     -2.773365
  H      -0.911064     -0.563254     -3.132368
7
Coordinates from ORCA-job ts3.irc_IRC_Full E -13.021505024870
  C      -0.951138      0.242088     -2.405798
  S      -1.542588     -0.351208     -0.758124
  C      -0.028782      0.121094     -0.235811
  O       0.732385      0.237617      0.656319
  H       0.031846      0.532249     -1.988708
  H      -1.550518      1.063337     -2.772667
  H      -0.911423     -0.559211     -3.129635
7
Coordinates from ORCA-job ts3.irc_IRC_Full E -13.015959876480
  C      -0.948158      0.242853     -2.401622
  S      -1.551569     -0.352643     -0.767494
  C      -0.021266      0.130207     -0.263106
  O       0.729283      0.241855      0.630826
  H       0.044333      0.521914     -1.924095
  H      -1.557645      1.064760     -2.775598
  H      -0.915197     -0.562980     -3.133337
7
Coordinates from ORCA-job ts3.irc_IRC_Full E -13.008973242620
  C      -0.962423      0.238325     -2.404429
  S      -1.557376     -0.353336     -0.774549
  C      -0.015606      0.138415     -0.289713
  O       0.726595      0.244698      0.612585
  H       0.072125      0.518018     -1.861587
  H      -1.565242      1.067929     -2.778801
  H      -0.918291     -0.568083     -3.137930
7
Coordinates from ORCA-job ts3.irc_IRC_Full E -13.001184315330
  C      -0.983358      0.232024     -2.410478
  S      -1.561878     -0.353888     -0.779879
  C      -0.010131      0.146307     -0.315395
  O       0.723632      0.246724      0.597762
  H       0.103819      0.516306     -1.802361
  H      -1.571990      1.071682     -2.781701
  H      -0.920312     -0.573189     -3.142372
7
Coordinates from ORCA-job ts3.irc_IRC_Full E -12.994676804300
  C      -1.005830      0.225042     -2.416827
  S      -1.563612     -0.353937     -0.782526
  C      -0.007462      0.153030     -0.341188
  O       0.721522      0.247903      0.588780
  H       0.133231      0.515630     -1.752066
  H      -1.577338      1.076220     -2.784199
  H      -0.920730     -0.577921     -3.146399
7
Coordinates from ORCA-job ts3.irc_IRC_Full E -12.989254730300
  C      -1.043868      0.213280     -2.425141
  S      -1.564822     -0.352902     -0.789514
  C       0.010210      0.165821     -0.367645
  O       0.710443      0.246248      0.577248
  H       0.165236      0.513765     -1.696064
  H      -1.579225      1.080039     -2.785230
  H      -0.918192     -0.580285     -3.148078
7
Coordinates from ORCA-job ts3.irc_IRC_Full E -12.986643820360
  C      -1.055448      0.209621     -2.427901
  S      -1.564810     -0.352660     -0.790421
  C       0.015153      0.169163     -0.374628
  O       0.709316      0.245458      0.578978
  H       0.244781      0.516362     -1.579743
  H      -1.573713      1.086011     -2.784423
  H      -0.906658     -0.580228     -3.147733
7
Coordinates from ORCA-job ts3.irc_IRC_Full E -12.987768584110
  C      -1.067028      0.205962     -2.430660
  S      -1.564798     -0.352419     -0.791328
  C       0.020097      0.172506     -0.381611
  O       0.708188      0.244667      0.580709
  H       0.324327      0.518959     -1.463422
  H      -1.568201      1.091982     -2.783615
  H      -0.895125     -0.580172     -3.147389
7
Coordinates from ORCA-job ts3.irc_IRC_Full E -12.989772118480
  C      -1.116788      0.188414     -2.437669
  S      -1.559281     -0.347907     -0.796333
  C       0.042025      0.182123     -0.390826
  O       0.695514      0.235752      0.597398
  H       0.353737      0.528191     -1.450745
  H      -1.568271      1.099748     -2.786259
  H      -0.889475     -0.584835     -3.152883
7
Coordinates from ORCA-job ts3.irc_IRC_Full E -12.992197798650
  C      -1.163114      0.171378     -2.454485
  S      -1.558231     -0.345800     -0.797876
  C       0.057919      0.190278     -0.401983
  O       0.683234      0.228868      0.604166
  H       0.396435      0.538731     -1.424853
  H      -1.570531      1.102370     -2.788702
  H      -0.888252     -0.584339     -3.153585
7
Coordinates from ORCA-job ts3.irc_IRC_Full E -12.994807232190
  C      -1.206815      0.158478     -2.447777
  S      -1.554358     -0.340083     -0.811034
  C       0.074730      0.197700     -0.409727
  O       0.671732      0.222295      0.612317
  H       0.433702      0.547612     -1.403807
  H      -1.576444      1.108851     -2.793821
  H      -0.885086     -0.593368     -3.163468
7
Coordinates from ORCA-job ts3.irc_IRC_Full E -12.997397250350
  C      -1.243621      0.143771     -2.473105
  S      -1.551790     -0.336348     -0.814744
  C       0.091793      0.203786     -0.413017
  O       0.660912      0.215515      0.623367
  H       0.468454      0.556507     -1.388024
  H      -1.579543      1.104314     -2.794496
  H      -0.888744     -0.586059     -3.157297
7
Coordinates from ORCA-job ts3.irc_IRC_Full E -12.998506662960
  C      -1.260098      0.139129     -2.469936
  S      -1.547242     -0.332592     -0.820857
  C       0.096805      0.205414     -0.412855
  O       0.656220      0.212596      0.627599
  H       0.482894      0.560216     -1.382183
  H      -1.583166      1.106611     -2.797220
  H      -0.887952     -0.589887     -3.161865
7
Coordinates from ORCA-job ts3.irc_IRC_Full E -12.999725047230
  C      -1.279344      0.132830     -2.474737
  S      -1.542347     -0.328667     -0.825416
  C       0.102479      0.207763     -0.415646
  O       0.651698      0.208696      0.636469
  H       0.501793      0.564962     -1.374217
  H      -1.587497      1.106645     -2.799860
  H      -0.889321     -0.590743     -3.163909
7
Coordinates from ORCA-job ts3.irc_IRC_Full E -13.000969758040
  C      -1.300993      0.126131     -2.482687
  S      -1.536198     -0.324029     -0.829589
  C       0.111070      0.210356     -0.414346
  O       0.644184      0.203906      0.643302
  H       0.524524      0.570620     -1.364767
  H      -1.593238      1.105670     -2.803190
  H      -0.891889     -0.591168     -3.166040
7
Coordinates from ORCA-job ts3.irc_IRC_Full E -13.002024698740
  C      -1.320396      0.120180     -2.489140
  S      -1.529329     -0.318918     -0.833926
  C       0.117193      0.212258     -0.414319
  O       0.638382      0.199265      0.652199
  H       0.546856      0.576070     -1.355557
  H      -1.600226      1.104705     -2.807404
  H      -0.895019     -0.592073     -3.169171
7
Coordinates from ORCA-job ts3.irc_IRC_Full E -13.002970052360
  C      -1.338410      0.114936     -2.497436
  S      -1.522282     -0.313521     -0.837587
  C       0.125324      0.214478     -0.412533
  O       0.631350      0.194267      0.659815
  H       0.569829      0.581239     -1.344810
  H      -1.608757      1.102462     -2.812398
  H      -0.899594     -0.592375     -3.172367
7
Coordinates from ORCA-job ts3.irc_IRC_Full E -13.003780704630
  C      -1.354414      0.110434     -2.502984
  S      -1.514457     -0.307169     -0.842519
  C       0.131732      0.215808     -0.410399
  O       0.625510      0.189293      0.668900
  H       0.593096      0.586384     -1.334389
  H      -1.619315      1.100301     -2.818769
  H      -0.904693     -0.593566     -3.177156
7
Coordinates from ORCA-job ts3.irc_IRC_Full E -13.004477811530
  C      -1.366560      0.107505     -2.512055
  S      -1.507424     -0.300957     -0.845445
  C       0.140333      0.217769     -0.408531
  O       0.619478      0.184133      0.677721
  H       0.615063      0.590349     -1.321968
  H      -1.631727      1.096119     -2.825801
  H      -0.911703     -0.593432     -3.181238
7
Coordinates from ORCA-job ts3.irc_IRC_Full E -13.005048805830
  C      -1.376494      0.105373     -2.513375
  S      -1.499344     -0.293179     -0.851788
  C       0.145403      0.217684     -0.404318
  O       0.615187      0.179364      0.687165
  H       0.636535      0.594431     -1.312194
  H      -1.646316      1.093681     -2.834515
  H      -0.917510     -0.595869     -3.188294
7
Coordinates from ORCA-job ts3.irc_IRC_Full E -13.005229793810
  C      -1.377659      0.105505     -2.517764
  S      -1.497795     -0.291373     -0.851515
  C       0.148553      0.218438     -0.404406
  O       0.613843      0.177843      0.690046
  H       0.641757      0.594798     -1.307869
  H      -1.650934      1.091411     -2.836829
  H      -0.920304     -0.595135     -3.188980
7
Coordinates from ORCA-job ts3.irc_IRC_Full E -13.005333295730
  C      -1.378504      0.105480     -2.518881
  S      -1.496615     -0.290035     -0.852091
  C       0.150147      0.218479     -0.402972
  O       0.612810      0.177028      0.690811
  H       0.645070      0.595195     -1.305866
  H      -1.653845      1.090530     -2.838418
  H      -0.921604     -0.595190     -3.189901
7
Coordinates from ORCA-job ts3.irc_IRC_Full E -13.005471338330
  C      -1.379693      0.105513     -2.520299
  S      -1.494872     -0.288001     -0.853041
  C       0.152220      0.218519     -0.401371
  O       0.611568      0.175808      0.692509
  H       0.649925      0.595754     -1.302949
  H      -1.658237      1.089250     -2.840815
  H      -0.923450     -0.595357     -3.191350
7
Coordinates from ORCA-job ts3.irc_IRC_Full E -13.005612025620
  C      -1.380829      0.105614     -2.521660
  S      -1.493056     -0.285799     -0.854095
  C       0.154131      0.218559     -0.400306
  O       0.610574      0.174496      0.694950
  H       0.654984      0.596293     -1.299881
  H      -1.662991      1.087893     -2.843400
  H      -0.925352     -0.595569     -3.192925
7
Coordinates from ORCA-job ts3.irc_IRC_Full E -13.005749462260
  C      -1.381777      0.105793     -2.523022
  S      -1.491260     -0.283540     -0.855113
  C       0.156133      0.218533     -0.398878
  O       0.609503      0.173196      0.697069
  H       0.659962      0.596772     -1.296862
  H      -1.667877      1.086490     -2.846030
  H      -0.927224     -0.595758     -3.194481
7
Coordinates from ORCA-job ts3.irc_IRC_Full E -13.005883383010
  C      -1.382529      0.106072     -2.524315
  S      -1.489535     -0.281237     -0.856124
  C       0.157954      0.218507     -0.397936
  O       0.608685      0.171886      0.699616
  H       0.664768      0.597150     -1.293863
  H      -1.672864      1.085040     -2.848682
  H      -0.929017     -0.595933     -3.196014
7
Coordinates from ORCA-job ts3.irc_IRC_Full E -13.006015741430
  C      -1.383155      0.106411     -2.525610
  S      -1.487809     -0.278855     -0.857118
  C       0.159927      0.218410     -0.396494
  O       0.607718      0.170581      0.701730
  H       0.669567      0.597487     -1.290891
  H      -1.678005      1.083539     -2.851394
  H      -0.930782     -0.596087     -3.197540
7
Coordinates from ORCA-job ts3.irc_IRC_Full E -13.006145101320
  C      -1.383609      0.106842     -2.526854
  S      -1.486160     -0.276424     -0.858097
  C       0.161735      0.218310     -0.395497
  O       0.606980      0.169263      0.704221
  H       0.674204      0.597724     -1.287949
  H      -1.683238      1.081983     -2.854117
  H      -0.932452     -0.596213     -3.199024
7
Coordinates from ORCA-job ts3.irc_IRC_Full E -13.006273172330
  C      -1.383952      0.107328     -2.528093
  S      -1.484518     -0.273912     -0.859061
  C       0.163675      0.218142     -0.394054
  O       0.606114      0.167948      0.706313
  H       0.678828      0.597915     -1.285041
  H      -1.688616      1.080376     -2.856892
  H      -0.934069     -0.596311     -3.200490
7
Coordinates from ORCA-job ts3.irc_IRC_Full E -13.006398706400
  C      -1.384149      0.107901     -2.529288
  S      -1.482957     -0.271345     -0.860005
  C       0.165463      0.217968     -0.393020
  O       0.605453      0.166619      0.708736
  H       0.683301      0.598008     -1.282170
  H      -1.694079      1.078708     -2.859671
  H      -0.935571     -0.596373     -3.201900
7
Coordinates from ORCA-job ts3.irc_IRC_Full E -13.006523203730
  C      -1.384250      0.108522     -2.530474
  S      -1.481412     -0.268695     -0.860931
  C       0.167363      0.217728     -0.391591
  O       0.604680      0.165291      0.710790
  H       0.687756      0.598051     -1.279339
  H      -1.699677      1.076989     -2.862492
  H      -0.937000     -0.596400     -3.203280
7
Coordinates from ORCA-job ts3.irc_IRC_Full E -13.006645590460
  C      -1.384233      0.109227     -2.531621
  S      -1.479951     -0.265983     -0.861835
  C       0.169124      0.217480     -0.390537
  O       0.604093      0.163945      0.713132
  H       0.692071      0.597997     -1.276553
  H      -1.705352      1.075202     -2.865310
  H      -0.938292     -0.596381     -3.204592
7
Coordinates from ORCA-job ts3.irc_IRC_Full E -13.006767178500
  C      -1.384133      0.109970     -2.532756
  S      -1.478514     -0.263188     -0.862720
  C       0.170980      0.217169     -0.389136
  O       0.603408      0.162599      0.715136
  H       0.696363      0.597889     -1.273814
  H      -1.711151      1.073367     -2.868164
  H      -0.939493     -0.596320     -3.205863
7
Coordinates from ORCA-job ts3.irc_IRC_Full E -13.006887064890
  C      -1.383942      0.110795     -2.533855
  S      -1.477164     -0.260326     -0.863578
  C       0.172709      0.216850     -0.388078
  O       0.602889      0.161234      0.717384
  H       0.700524      0.597685     -1.271129
  H      -1.717019      1.071455     -2.871006
  H      -0.940536     -0.596206     -3.207055
7
Coordinates from ORCA-job ts3.irc_IRC_Full E -13.007006380100
  C      -1.383681      0.111647     -2.534939
  S      -1.475846     -0.257380     -0.864416
  C       0.174512      0.216472     -0.386727
  O       0.602290      0.159866      0.719330
  H       0.704658      0.597424     -1.268495
  H      -1.723000      1.069499     -2.873877
  H      -0.941473     -0.596042     -3.208194
7
Coordinates from ORCA-job ts3.irc_IRC_Full E -13.007124432140
  C      -1.383355      0.112582     -2.535991
  S      -1.474615     -0.254362     -0.865225
  C       0.176204      0.216083     -0.385671
  O       0.601832      0.158476      0.721469
  H       0.708672      0.597068     -1.265921
  H      -1.729041      1.067458     -2.876731
  H      -0.942235     -0.595820     -3.209249
7
Coordinates from ORCA-job ts3.irc_IRC_Full E -13.007242088050
  C      -1.382970      0.113531     -2.537023
  S      -1.473425     -0.251264     -0.866011
  C       0.177949      0.215642     -0.384379
  O       0.601313      0.157083      0.723345
  H       0.712650      0.596654     -1.263406
  H      -1.735180      1.065378     -2.879605
  H      -0.942877     -0.595539     -3.210238
7
Coordinates from ORCA-job ts3.irc_IRC_Full E -13.007358898990
  C      -1.382545      0.114565     -2.538025
  S      -1.472322     -0.248091     -0.866765
  C       0.179598      0.215189     -0.383337
  O       0.600912      0.155667      0.725362
  H       0.716518      0.596145     -1.260957
  H      -1.741371      1.063205     -2.882457
  H      -0.943330     -0.595195     -3.211137
7
Coordinates from ORCA-job ts3.irc_IRC_Full E -13.007475503340
  C      -1.382070      0.115598     -2.539004
  S      -1.471266     -0.244841     -0.867496
  C       0.181276      0.214690     -0.382125
  O       0.600472      0.154246      0.727164
  H       0.720343      0.595577     -1.258572
  H      -1.747642      1.061001     -2.885322
  H      -0.943653     -0.594786     -3.211962
7
Coordinates from ORCA-job ts3.irc_IRC_Full E -13.007591673780
  C      -1.381577      0.116720     -2.539953
  S      -1.470296     -0.241515     -0.868192
  C       0.182877      0.214178     -0.381099
  O       0.600122      0.152803      0.729042
  H       0.724067      0.594918     -1.256259
  H      -1.753955      1.058695     -2.888160
  H      -0.943777     -0.594312     -3.212696
7
Coordinates from ORCA-job ts3.irc_IRC_Full E -13.007707801070
  C      -1.381042      0.117827     -2.540876
  S      -1.469380     -0.238120     -0.868864
  C       0.184478      0.213631     -0.379988
  O       0.599761      0.151351      0.730773
  H       0.727738      0.594197     -1.254012
  H      -1.760331      1.056367     -2.891004
  H      -0.943764     -0.593766     -3.213346
7
Coordinates from ORCA-job ts3.irc_IRC_Full E -13.007823876180
  C      -1.380509      0.119022     -2.541770
  S      -1.468546     -0.234648     -0.869499
  C       0.186029      0.213065     -0.378965
  O       0.599452      0.149881      0.732485
  H       0.731317      0.593388     -1.251846
  H      -1.766738      1.053933     -2.893818
  H      -0.943547     -0.593153     -3.213903
7
Coordinates from ORCA-job ts3.irc_IRC_Full E -13.007940095760
  C      -1.379951      0.120228     -2.542629
  S      -1.467788     -0.231096     -0.870098
  C       0.187553      0.212468     -0.377919
  O       0.599157      0.148397      0.734072
  H       0.734815      0.592496     -1.249771
  H      -1.773191      1.051445     -2.896619
  H      -0.943135     -0.592452     -3.214352
7
Coordinates from ORCA-job ts3.irc_IRC_Full E -13.008056474710
  C      -1.379381      0.121439     -2.543457
  S      -1.467092     -0.227496     -0.870672
  C       0.189026      0.211863     -0.376977
  O       0.598912      0.146899      0.735679
  H       0.738245      0.591545     -1.247756
  H      -1.779664      1.048926     -2.899409
  H      -0.942585     -0.591689     -3.214725
7
Coordinates from ORCA-job ts3.irc_IRC_Full E -13.008173278120
  C      -1.378819      0.122703     -2.544261
  S      -1.466465     -0.223827     -0.871210
  C       0.190481      0.211234     -0.375992
  O       0.598669      0.145389      0.737147
  H       0.741599      0.590518     -1.245827
  H      -1.786156      1.046321     -2.902171
  H      -0.941848     -0.590852     -3.215002
7
Coordinates from ORCA-job ts3.irc_IRC_Full E -13.008290409730
  C      -1.378257      0.123977     -2.545031
  S      -1.465901     -0.220114     -0.871724
  C       0.191879      0.210601     -0.375122
  O       0.598478      0.143865      0.738638
  H       0.744881      0.589430     -1.243963
  H      -1.792652      1.043679     -2.904914
  H      -0.940967     -0.589953     -3.215202
7
Coordinates from ORCA-job ts3.irc_IRC_Full E -13.008408181710
  C      -1.377702      0.125283     -2.545775
  S      -1.465401     -0.216338     -0.872203
  C       0.193257      0.209949     -0.374203
  O       0.598285      0.142329      0.739985
  H       0.748092      0.588272     -1.242183
  H      -1.799157      1.040966     -2.907632
  H      -0.939913     -0.588976     -3.215307
7
Coordinates from ORCA-job ts3.irc_IRC_Full E -13.008526419750
  C      -1.377153      0.126597     -2.546485
  S      -1.464961     -0.212526     -0.872657
  C       0.194575      0.209299     -0.373404
  O       0.598145      0.140780      0.741359
  H       0.751229      0.587057     -1.240468
  H      -1.805653      1.038217     -2.910326
  H      -0.938722     -0.587938     -3.215336
7
Coordinates from ORCA-job ts3.irc_IRC_Full E -13.008645462100
  C      -1.376619      0.127939     -2.547170
  S      -1.464580     -0.208658     -0.873078
  C       0.195875      0.208634     -0.372550
  O       0.597998      0.139221      0.742587
  H       0.754299      0.585776     -1.238835
  H      -1.812146      1.035400     -2.912994
  H      -0.937367     -0.586825     -3.215276
7
Coordinates from ORCA-job ts3.irc_IRC_Full E -13.008765071930
  C      -1.376094      0.129287     -2.547821
  S      -1.464255     -0.204761     -0.873476
  C       0.197115      0.207976     -0.371819
  O       0.597903      0.137648      0.743846
  H       0.757296      0.584441     -1.237266
  H      -1.818618      1.032549     -2.915637
  H      -0.935886     -0.585654     -3.215144
7
Coordinates from ORCA-job ts3.irc_IRC_Full E -13.008885597400
  C      -1.375588      0.130659     -2.548447
  S      -1.463983     -0.200817     -0.873842
  C       0.198336      0.207307     -0.371029
  O       0.597799      0.136066      0.744959
  H       0.760230      0.583046     -1.235776
  H      -1.825079      1.029635     -2.918252
  H      -0.934255     -0.584411     -3.214929
7
Coordinates from ORCA-job ts3.irc_IRC_Full E -13.009006755650
  C      -1.375094      0.132034     -2.549042
  S      -1.463764     -0.196850     -0.874186
  C       0.199497      0.206649     -0.370364
  O       0.597745      0.134472      0.746108
  H       0.763093      0.581603     -1.234346
  H      -1.831509      1.026689     -2.920841
  H      -0.932508     -0.583112     -3.214646
7
Coordinates from ORCA-job ts3.irc_IRC_Full E -13.009128892080
  C      -1.374621      0.133430     -2.549611
  S      -1.463590     -0.192841     -0.874501
  C       0.200641      0.205984     -0.369637
  O       0.597679      0.132869      0.747113
  H       0.765896      0.580104     -1.232991
  H      -1.837918      1.023684     -2.923403
  H      -0.930626     -0.581744     -3.214286
7
Coordinates from ORCA-job ts3.irc_IRC_Full E -13.009251694130
  C      -1.374162      0.134827     -2.550151
  S      -1.463464     -0.188816     -0.874796
  C       0.201725      0.205333     -0.369032
  O       0.597661      0.131255      0.748156
  H       0.768631      0.578560     -1.231693
  H      -1.844291      1.020650     -2.925939
  H      -0.928639     -0.580323     -3.213863
7
Coordinates from ORCA-job ts3.irc_IRC_Full E -13.009375493620
  C      -1.373726      0.136243     -2.550666
  S      -1.463379     -0.184756     -0.875063
  C       0.202793      0.204679     -0.368365
  O       0.597630      0.129634      0.749060
  H       0.771311      0.576966     -1.230466
  H      -1.850637      1.017558     -2.928448
  H      -0.926531     -0.578837     -3.213369
7
Coordinates from ORCA-job ts3.irc_IRC_Full E -13.009499964140
  C      -1.373305      0.137657     -2.551153
  S      -1.463336     -0.180684     -0.875311
  C       0.203804      0.204041     -0.367816
  O       0.597642      0.128001      0.750003
  H       0.773926      0.575331     -1.229293
  H      -1.856941      1.014441     -2.930930
  H      -0.924330     -0.577301     -3.212817
7
Coordinates from ORCA-job ts3.irc_IRC_Full E -13.009625414790
  C      -1.372908      0.139088     -2.551617
  S      -1.463329     -0.176583     -0.875534
  C       0.204799      0.203401     -0.367206
  O       0.597641      0.126362      0.750813
  H       0.776488      0.573651     -1.228186
  H      -1.863212      1.011269     -2.933387
  H      -0.922020     -0.575703     -3.212200
7
Coordinates from ORCA-job ts3.irc_IRC_Full E -13.009751519700
  C      -1.372526      0.140516     -2.552055
  S      -1.463358     -0.172472     -0.875739
  C       0.205739      0.202780     -0.366710
  O       0.597681      0.124713      0.751663
  H       0.778990      0.571933     -1.227128
  H      -1.869438      1.008073     -2.935818
  H      -0.919628     -0.574058     -3.211530
7
Coordinates from ORCA-job ts3.irc_IRC_Full E -13.009878558010
  C      -1.372167      0.141959     -2.552471
  S      -1.463419     -0.168338     -0.875922
  C       0.206665      0.202160     -0.366155
  O       0.597706      0.123059      0.752386
  H       0.781442      0.570174     -1.226132
  H      -1.875627      1.004825     -2.938224
  H      -0.917139     -0.572353     -3.210800
7
Coordinates from ORCA-job ts3.irc_IRC_Full E -13.010006216140
  C      -1.371824      0.143398     -2.552862
  S      -1.463511     -0.164197     -0.876088
  C       0.207539      0.201559     -0.365706
  O       0.597768      0.121395      0.753148
  H       0.783838      0.568381     -1.225182
  H      -1.881770      1.001554     -2.940605
  H      -0.914579     -0.570604     -3.210022
7
Coordinates from ORCA-job ts3.irc_IRC_Full E -13.010134738870
  C      -1.371505      0.144850     -2.553233
  S      -1.463631     -0.160037     -0.876232
  C       0.208398      0.200961     -0.365202
  O       0.597816      0.119726      0.753792
  H       0.786187      0.566550     -1.224291
  H      -1.887871      0.998234     -2.942962
  H      -0.911933     -0.568799     -3.209189
7
Coordinates from ORCA-job ts3.irc_IRC_Full E -13.010263833240
  C      -1.371201      0.146298     -2.553580
  S      -1.463778     -0.155872     -0.876362
  C       0.209209      0.200382     -0.364798
  O       0.597897      0.118048      0.754472
  H       0.788483      0.564689     -1.223441
  H      -1.893926      0.994891     -2.945295
  H      -0.909224     -0.566951     -3.208312
7
Coordinates from ORCA-job ts3.irc_IRC_Full E -13.010393707210
  C      -1.370920      0.147757     -2.553909
  S      -1.463949     -0.151690     -0.876472
  C       0.210007      0.199808     -0.364343
  O       0.597964      0.116366      0.755042
  H       0.790735      0.562792     -1.222646
  H      -1.899937      0.991502     -2.947605
  H      -0.906440     -0.565049     -3.207384
7
Coordinates from ORCA-job ts3.irc_IRC_Full E -13.010524095020
  C      -1.370654      0.149211     -2.554216
  S      -1.464143     -0.147506     -0.876569
  C       0.210759      0.199253     -0.363979
  O       0.598061      0.114677      0.755645
  H       0.792937      0.560868     -1.221890
  H      -1.905900      0.988091     -2.949892
  H      -0.903600     -0.563107     -3.206416
7
Coordinates from ORCA-job ts3.irc_IRC_Full E -13.010655165970
  C      -1.370410      0.150675     -2.554506
  S      -1.464357     -0.143308     -0.876647
  C       0.211498      0.198703     -0.363570
  O       0.598144      0.112984      0.756148
  H       0.795097      0.558912     -1.221184
  H      -1.911817      0.984635     -2.952156
  H      -0.900694     -0.561114     -3.205402
7
Coordinates from ORCA-job ts3.irc_IRC_Full E -13.010786686290
  C      -1.370182      0.152134     -2.554775
  S      -1.464592     -0.139108     -0.876713
  C       0.212195      0.198171     -0.363244
  O       0.598253      0.111283      0.756680
  H       0.797212      0.556930     -1.220515
  H      -1.917687      0.981157     -2.954399
  H      -0.897739     -0.559082     -3.204351
7
Coordinates from ORCA-job ts3.irc_IRC_Full E -13.010918785840
  C      -1.369975      0.153600     -2.555028
  S      -1.464844     -0.134897     -0.876762
  C       0.212879      0.197646     -0.362880
  O       0.598349      0.109580      0.757121
  H       0.799286      0.554919     -1.219892
  H      -1.923509      0.977638     -2.956619
  H      -0.894726     -0.557001     -3.203258
7
Coordinates from ORCA-job ts3.irc_IRC_Full E -13.011051266320
  C      -1.369783      0.155062     -2.555261
  S      -1.465113     -0.130684     -0.876799
  C       0.213526      0.197138     -0.362589
  O       0.598467      0.107870      0.757585
  H       0.801318      0.552884     -1.219304
  H      -1.929285      0.974096     -2.958819
  H      -0.891670     -0.554881     -3.202131
7
Coordinates from ORCA-job ts3.irc_IRC_Full E -13.011184217210
  C      -1.369611      0.156530     -2.555480
  S      -1.465396     -0.126463     -0.876820
  C       0.214158      0.196638     -0.362267
  O       0.598574      0.106159      0.757970
  H       0.803311      0.550823     -1.218759
  H      -1.935011      0.970516     -2.960997
  H      -0.888563     -0.552715     -3.200964
7
Coordinates from ORCA-job ts3.irc_IRC_Full E -13.011317477720
  C      -1.369454      0.157993     -2.555681
  S      -1.465694     -0.122241     -0.876831
  C       0.214756      0.196153     -0.362007
  O       0.598698      0.104442      0.758370
  H       0.805264      0.548738     -1.218246
  H      -1.940692      0.966911     -2.963155
  H      -0.885418     -0.550512     -3.199767
7
Coordinates from ORCA-job ts3.irc_IRC_Full E -13.011451098980
  C      -1.369317      0.159461     -2.555867
  S      -1.466004     -0.118011     -0.876827
  C       0.215340      0.195677     -0.361727
  O       0.598813      0.102723      0.758703
  H       0.807180      0.546630     -1.217774
  H      -1.946323      0.963271     -2.965291
  H      -0.882229     -0.548264     -3.198534
7
Coordinates from ORCA-job ts3.irc_IRC_Full E -13.011584955780
  C      -1.369195      0.160924     -2.556037
  S      -1.466326     -0.113780     -0.876812
  C       0.215894      0.195215     -0.361497
  O       0.598942      0.100999      0.759043
  H       0.809058      0.544500     -1.217333
  H      -1.951907      0.959606     -2.967409
  H      -0.879005     -0.545979     -3.197271
7
Coordinates from ORCA-job ts3.irc_IRC_Full E -13.011719065470
  C      -1.369091      0.162390     -2.556194
  S      -1.466659     -0.109545     -0.876785
  C       0.216432      0.194762     -0.361257
  O       0.599063      0.099275      0.759329
  H       0.810901      0.542348     -1.216928
  H      -1.957442      0.955908     -2.969506
  H      -0.875744     -0.543651     -3.195976
7
Coordinates from ORCA-job ts3.irc_IRC_Full E -13.011853334310
  C      -1.369001      0.163852     -2.556335
  S      -1.467002     -0.105307     -0.876747
  C       0.216945      0.194322     -0.361055
  O       0.599194      0.097547      0.759612
  H       0.812709      0.540175     -1.216554
  H      -1.962931      0.952185     -2.971584
  H      -0.872452     -0.541287     -3.194653
7
Coordinates from ORCA-job ts3.irc_IRC_Full E -13.011987752030
  C      -1.368930      0.165314     -2.556463
  S      -1.467353     -0.101066     -0.876697
  C       0.217440      0.193891     -0.360853
  O       0.599319      0.095818      0.759853
  H       0.814482      0.537981     -1.216214
  H      -1.968371      0.948430     -2.973642
  H      -0.869128     -0.538882     -3.193301
7
Coordinates from ORCA-job ts3.irc_IRC_Full E -13.012122250340
  C      -1.368872      0.166773     -2.556577
  S      -1.467713     -0.096823     -0.876637
  C       0.217914      0.193472     -0.360680
  O       0.599450      0.094086      0.760084
  H       0.816222      0.535768     -1.215903
  H      -1.973764      0.944650     -2.975682
  H      -0.865776     -0.536440     -3.191922
7
Coordinates from ORCA-job ts3.irc_IRC_Full E -13.012256799070
  C      -1.368832      0.168231     -2.556679
  S      -1.468080     -0.092578     -0.876567
  C       0.218369      0.193062     -0.360515
  O       0.599579      0.092354      0.760286
  H       0.817928      0.533536     -1.215623
  H      -1.979109      0.940840     -2.977702
  H      -0.862396     -0.533960     -3.190517
7
Coordinates from ORCA-job ts3.irc_IRC_Full E -13.012391347970
  C      -1.368805      0.169686     -2.556768
  S      -1.468454     -0.088330     -0.876487
  C       0.218805      0.192662     -0.360373
  O       0.599710      0.090621      0.760473
  H       0.819604      0.531285     -1.215371
  H      -1.984408      0.937005     -2.979704
  H      -0.858991     -0.531443     -3.189088
7
Coordinates from ORCA-job ts3.irc_IRC_Full E -13.012525864580
  C      -1.368791      0.171138     -2.556846
  S      -1.468832     -0.084081     -0.876398
  C       0.219227      0.192270     -0.360241
  O       0.599840      0.088887      0.760640
  H       0.821253      0.529019     -1.215142
  H      -1.989669      0.933148     -2.981691
  H      -0.855567     -0.528896     -3.187638
7
Coordinates from ORCA-job ts3.irc_IRC_Full E -13.012660294810
  C      -1.368798      0.172594     -2.556919
  S      -1.469213     -0.079830     -0.876300
  C       0.219641      0.191883     -0.360082
  O       0.599955      0.087157      0.760746
  H       0.822872      0.526736     -1.214944
  H      -1.994874      0.929255     -2.983655
  H      -0.852121     -0.526309     -3.186164
7
Coordinates from ORCA-job ts3.irc_IRC_Full E -13.012794572900
  C      -1.368815      0.174038     -2.556971
  S      -1.469604     -0.075578     -0.876196
  C       0.220019      0.191516     -0.360016
  O       0.600092      0.085420      0.760902
  H       0.824452      0.524431     -1.214773
  H      -2.000029      0.925338     -2.985600
  H      -0.848655     -0.523679     -3.184663
7
Coordinates from ORCA-job ts3.irc_IRC_Full E -13.012928692600
  C      -1.368849      0.175482     -2.557015
  S      -1.469991     -0.071324     -0.876077
  C       0.220403      0.191143     -0.359854
  O       0.600194      0.083694      0.760935
  H       0.826012      0.522112     -1.214633
  H      -2.005141      0.921397     -2.987529
  H      -0.845166     -0.521018     -3.183144
7
Coordinates from ORCA-job ts3.irc_IRC_Full E -13.013062560000
  C      -1.368897      0.176920     -2.557047
  S      -1.470391     -0.067071     -0.875952
  C       0.220745      0.190795     -0.359835
  O       0.600332      0.081959      0.761067
  H       0.827530      0.519773     -1.214515
  H      -2.010197      0.917427     -2.989435
  H      -0.841661     -0.518316     -3.181601
7
Coordinates from ORCA-job ts3.irc_IRC_Full E -13.013196235310
  C      -1.368955      0.178352     -2.557067
  S      -1.470786     -0.062814     -0.875816
  C       0.221101      0.190435     -0.359690
  O       0.600427      0.080236      0.761053
  H       0.829032      0.517422     -1.214426
  H      -2.015221      0.913439     -2.991330
  H      -0.838138     -0.515584     -3.180041
7
Coordinates from ORCA-job ts3.irc_IRC_Full E -13.013329537750
  C      -1.369034      0.179784     -2.557079
  S      -1.471192     -0.058561     -0.875674
  C       0.221409      0.190104     -0.359711
  O       0.600565      0.078504      0.761161
  H       0.830491      0.515049     -1.214358
  H      -2.020178      0.909418     -2.993197
  H      -0.834601     -0.512812     -3.178458
7
Coordinates from ORCA-job ts3.irc_IRC_Full E -13.013462605680
  C      -1.369118      0.181205     -2.557077
  S      -1.471592     -0.054301     -0.875522
  C       0.221737      0.189757     -0.359586
  O       0.600652      0.076787      0.761104
  H       0.831936      0.512665     -1.214320
  H      -2.025109      0.905381     -2.995056
  H      -0.831047     -0.510007     -3.176859
7
Coordinates from ORCA-job ts3.irc_IRC_Full E -13.013595206620
  C      -1.369224      0.182627     -2.557070
  S      -1.472003     -0.050048     -0.875363
  C       0.222016      0.189441     -0.359642
  O       0.600786      0.075059      0.761184
  H       0.833338      0.510260     -1.214300
  H      -2.029970      0.901311     -2.996886
  H      -0.827482     -0.507165     -3.175240
7
Coordinates from ORCA-job ts3.irc_IRC_Full E -13.013727509670
  C      -1.369334      0.184036     -2.557047
  S      -1.472406     -0.045787     -0.875195
  C       0.222318      0.189105     -0.359528
  O       0.600863      0.073350      0.761078
  H       0.834728      0.507844     -1.214311
  H      -2.034809      0.897227     -2.998709
  H      -0.823901     -0.504289     -3.173604
7
Coordinates from ORCA-job ts3.irc_IRC_Full E -13.013859240420
  C      -1.369467      0.185448     -2.557020
  S      -1.472820     -0.041535     -0.875021
  C       0.222567      0.188802     -0.359621
  O       0.600993      0.071630      0.761135
  H       0.836073      0.505408     -1.214337
  H      -2.039575      0.893110     -3.000501
  H      -0.820312     -0.501377     -3.171951
7
Coordinates from ORCA-job ts3.irc_IRC_Full E -13.013990645970
  C      -1.369601      0.186843     -2.556979
  S      -1.473225     -0.037274     -0.874838
  C       0.222844      0.188477     -0.359530
  O       0.601062      0.069930      0.760995
  H       0.837409      0.502961     -1.214396
  H      -2.044320      0.888980     -3.002289
  H      -0.816708     -0.498430     -3.170281
7
Coordinates from ORCA-job ts3.irc_IRC_Full E -13.014121394900
  C      -1.369760      0.188243     -2.556933
  S      -1.473641     -0.033022     -0.874648
  C       0.223066      0.188185     -0.359652
  O       0.601186      0.068218      0.761024
  H       0.838700      0.500493     -1.214467
  H      -2.048993      0.884818     -3.004044
  H      -0.813098     -0.495449     -3.168596
7
Coordinates from ORCA-job ts3.irc_IRC_Full E -13.014251754400
  C      -1.369919      0.189625     -2.556873
  S      -1.474047     -0.028760     -0.874450
  C       0.223321      0.187867     -0.359572
  O       0.601243      0.066529      0.760839
  H       0.839983      0.498014     -1.214571
  H      -2.053646      0.880642     -3.005795
  H      -0.809475     -0.492432     -3.166895
7
Coordinates from ORCA-job ts3.irc_IRC_Full E -13.014381356150
  C      -1.370102      0.191010     -2.556810
  S      -1.474463     -0.024510     -0.874247
  C       0.223516      0.187586     -0.359729
  O       0.601362      0.064828      0.760848
  H       0.841219      0.495517     -1.214686
  H      -2.058224      0.876438     -3.007513
  H      -0.805849     -0.489383     -3.165181
7
Coordinates from ORCA-job ts3.irc_IRC_Full E -13.014510552830
  C      -1.370283      0.192378     -2.556732
  S      -1.474869     -0.020250     -0.874035
  C       0.223747      0.187277     -0.359672
  O       0.601409      0.063152      0.760634
  H       0.842450      0.493006     -1.214833
  H      -2.062785      0.872218     -3.009227
  H      -0.802209     -0.486296     -3.163450
7
Coordinates from ORCA-job ts3.irc_IRC_Full E -13.014638917890
  C      -1.370490      0.193748     -2.556652
  S      -1.475285     -0.016001     -0.873818
  C       0.223919      0.187004     -0.359855
  O       0.601521      0.061464      0.760616
  H       0.843634      0.490478     -1.214991
  H      -2.067270      0.867971     -3.010909
  H      -0.798568     -0.483178     -3.161709
7
Coordinates from ORCA-job ts3.irc_IRC_Full E -13.014766812890
  C      -1.370694      0.195101     -2.556557
  S      -1.475688     -0.011742     -0.873593
  C       0.224129      0.186700     -0.359809
  O       0.601555      0.059804      0.760362
  H       0.844813      0.487936     -1.215182
  H      -2.071740      0.863709     -3.012587
  H      -0.794914     -0.480022     -3.159951
7
Coordinates from ORCA-job ts3.irc_IRC_Full E -13.014893780460
  C      -1.370923      0.196455     -2.556460
  S      -1.476103     -0.007497     -0.873362
  C       0.224277      0.186434     -0.360024
  O       0.601659      0.058130      0.760325
  H       0.845945      0.485377     -1.215381
  H      -2.076131      0.859422     -3.014230
  H      -0.791263     -0.476836     -3.158184
7
Coordinates from ORCA-job ts3.irc_IRC_Full E -13.015020270910
  C      -1.371149      0.197791     -2.556348
  S      -1.476504     -0.003240     -0.873125
  C       0.224465      0.186136     -0.360003
  O       0.601684      0.056486      0.760045
  H       0.847073      0.482804     -1.215613
  H      -2.080510      0.855119     -3.015872
  H      -0.787599     -0.473610     -3.156402
7
Coordinates from ORCA-job ts3.irc_IRC_Full E -13.015145769090
  C      -1.371399      0.199128     -2.556236
  S      -1.476916      0.001002     -0.872882
  C       0.224591      0.185876     -0.360241
  O       0.601779      0.054830      0.759984
  H       0.848154      0.480213     -1.215853
  H      -2.084810      0.850792     -3.017478
  H      -0.783938     -0.470355     -3.154611
7
Coordinates from ORCA-job ts3.irc_IRC_Full E -13.015270727120
  C      -1.371646      0.200446     -2.556108
  S      -1.477314      0.005257     -0.872632
  C       0.224761      0.185580     -0.360231
  O       0.601790      0.053205      0.759669
  H       0.849232      0.477608     -1.216126
  H      -2.089098      0.846450     -3.019083
  H      -0.780265     -0.467060     -3.152806
7
Coordinates from ORCA-job ts3.irc_IRC_Full E -13.015394603340
  C      -1.371917      0.201765     -2.555980
  S      -1.477723      0.009493     -0.872377
  C       0.224865      0.185324     -0.360499
  O       0.601877      0.051568      0.759590
  H       0.850262      0.474986     -1.216405
  H      -2.093304      0.842086     -3.020651
  H      -0.776599     -0.463738     -3.150995
7
Coordinates from ORCA-job ts3.irc_IRC_Full E -13.015517937980
  C      -1.372183      0.203064     -2.555836
  S      -1.478118      0.013744     -0.872116
  C       0.225014      0.185031     -0.360513
  O       0.601879      0.049964      0.759252
  H       0.851289      0.472348     -1.216718
  H      -2.097502      0.837706     -3.022218
  H      -0.772920     -0.460373     -3.149168
7
Coordinates from ORCA-job ts3.irc_IRC_Full E -13.015640133580
  C      -1.372473      0.204365     -2.555694
  S      -1.478522      0.017976     -0.871849
  C       0.225099      0.184778     -0.360801
  O       0.601955      0.048349      0.759150
  H       0.852270      0.469694     -1.217036
  H      -2.101617      0.833305     -3.023749
  H      -0.769249     -0.456982     -3.147338
7
Coordinates from ORCA-job ts3.irc_IRC_Full E -13.015761729020
  C      -1.372758      0.205645     -2.555535
  S      -1.478912      0.022223     -0.871577
  C       0.225230      0.184486     -0.360827
  O       0.601943      0.046769      0.758782
  H       0.853248      0.467023     -1.217388
  H      -2.105725      0.828888     -3.025279
  H      -0.765566     -0.453547     -3.145493
7
Coordinates from ORCA-job ts3.irc_IRC_Full E -13.015882103050
  C      -1.373067      0.206925     -2.555379
  S      -1.479312      0.026448     -0.871300
  C       0.225294      0.184235     -0.361143
  O       0.602010      0.045177      0.758663
  H       0.854178      0.464336     -1.217743
  H      -2.109748      0.824454     -3.026770
  H      -0.761894     -0.450088     -3.143646
7
Coordinates from ORCA-job ts3.irc_IRC_Full E -13.016001878590
  C      -1.373369      0.208184     -2.555204
  S      -1.479696      0.030689     -0.871017
  C       0.225406      0.183943     -0.361192
  O       0.601988      0.043622      0.758275
  H       0.855107      0.461630     -1.218133
  H      -2.113766      0.820002     -3.028263
  H      -0.758209     -0.446584     -3.141783
7
Coordinates from ORCA-job ts3.irc_IRC_Full E -13.016120381820
  C      -1.373697      0.209444     -2.555034
  S      -1.480091      0.034907     -0.870729
  C       0.225452      0.183691     -0.361527
  O       0.602043      0.042057      0.758136
  H       0.855988      0.458909     -1.218526
  H      -2.117698      0.815533     -3.029716
  H      -0.754537     -0.443056     -3.139921
