14
Coordinates from ORCA-job scan1 E -17.606191857780
  C          -0.03002029947228      1.12686660488462      3.59718633094852
  C           0.02610821117680      1.34049598536976      2.09097928614865
  C          -0.15141815955865      0.01203733332699      1.33453827897500
  C          -0.14570883834240      0.21743605731092     -0.13099725523002
  C          -1.17947046043426     -0.16295484340081     -0.93167956290633
  N          -2.05920539532338     -0.50667297938467     -1.60805372391670
  H           0.69826445130754      0.71640188378847     -0.58422755234282
  H           0.68232840138170     -0.64560776368903      1.61056367553824
  H          -1.08139747944310     -0.46924970077312      1.64407078031464
  H           0.98294000494454      1.78927586523686      1.81540349948880
  H          -0.76697563448743      2.02813003756956      1.78997780332215
  H           0.08840252789711      2.07493648009694      4.11627863871680
  H          -0.98505533777981      0.69454521044674      3.88709888939777
  H           0.76320600813361      0.45647382921678      3.92134291154530
14
Coordinates from ORCA-job scan1 E -17.604112518140
  C          -0.06006177800704      1.14850886135663      3.58811417146245
  C          -0.01539348366520      1.35670315762690      2.08648996666182
  C          -0.07775387091930     -0.06443789594272      1.32199939925249
  C          -0.08377530807485      0.10899163292356     -0.13885385349316
  C          -1.21366741932228     -0.03801102785101     -0.88768589611107
  N          -2.17790545267438     -0.17655939070159     -1.51976692945172
  H           0.82062234034347      0.42386267663266     -0.63836545948256
  H           0.80608305588716     -0.62316924137037      1.63700558916603
  H          -0.97804780269686     -0.57873796709834      1.65745628375067
  H           0.90365698027717      1.86172221953299      1.79134423899378
  H          -0.86666090714342      1.95029184113677      1.75519925776248
  H          -0.02334182023918      2.10954100540293      4.09681229673494
  H          -0.97715688239008      0.64216101008841      3.88004160830002
  H           0.78540034862481      0.55124711826317      3.92269132645384
14
Coordinates from ORCA-job scan1 E -17.598798419250
  C          -0.07188931604140      1.16246172865136      3.58924654698111
  C          -0.03977489035943      1.38095564777244      2.09407359456665
  C          -0.04443694549302     -0.11395493904711      1.30402212348172
  C          -0.06138987473796      0.04785772782230     -0.14851248257269
  C          -1.21997896123869      0.02089755977016     -0.87074357677028
  N          -2.20709478272606     -0.01471680586930     -1.48024916335115
  H           0.85615610591745      0.26872346513556     -0.67367440984429
  H           0.86076891705049     -0.61576064885969      1.64170048987093
  H          -0.93131522200092     -0.63141016234173      1.66384091350188
  H           0.86066657898845      1.90374000016942      1.78101511644971
  H          -0.91819516848672      1.91951188592930      1.74731518088494
  H          -0.07223620505292      2.12361160767175      4.10051885013803
  H          -0.96750043448251      0.62020031183008      3.88321620097057
  H           0.79821819866324      0.59999662136545      3.92071261569288
14
Coordinates from ORCA-job scan1 E -17.591437584750
  C          -0.07580100578571      1.17241535952967      3.59671915822802
  C          -0.05129580518949      1.41092980366957      2.10940925803890
  C          -0.03064144817432     -0.15020876396909      1.28243084918355
  C          -0.05372777583906      0.01145144587333     -0.15981163311485
  C          -1.22165885202358      0.03947989999396     -0.87092845846758
  N          -2.21426263342822      0.05046806583871     -1.47121006356750
  H           0.86531134043045      0.19533357720853     -0.69665277368444
  H           0.88444470215003     -0.61588822034931      1.63726473514021
  H          -0.91369113748622     -0.65593553928023      1.66270220584825
  H           0.84317029674319      1.93200688451348      1.78305534465958
  H          -0.94212298463957      1.91743826485331      1.75207735463701
  H          -0.08943277604849      2.12873463675915      4.11841085023750
  H          -0.96255941758489      0.61458451685469      3.88827499555971
  H           0.80426549687589      0.62130406850422      3.92074017730163
14
Coordinates from ORCA-job scan1 E -17.583009580210
  C          -0.07664740926066      1.18050967344498      3.60713796203423
  C          -0.05585822511481      1.44301798551730      2.12850438925891
  C          -0.02545517304579     -0.18099052104770      1.25833948272663
  C          -0.05123665007824     -0.01399644088907     -0.17223981930631
  C          -1.22347253002998      0.03874612135632     -0.87951736264756
  N          -2.21713979028334      0.07039797729989     -1.47587219759940
  H           0.86682931739724      0.16074442009488     -0.71406137723829
  H           0.89497601200253     -0.61782071235806      1.63006399500247
  H          -0.90927388253363     -0.66731588423602      1.65712625120136
  H           0.83902160763449      1.95346335962678      1.79175376747757
  H          -0.95230938149429      1.92921172767646      1.76195354596683
  H          -0.09333875379020      2.12983275717713      4.14311432091649
  H          -0.96100937279318      0.61613629277814      3.89331592428808
  H           0.80691223138985      0.63017724355898      3.92286311791898
14
Coordinates from ORCA-job scan1 E -17.574359346980
  C          -0.07723739706960      1.18833397345836      3.61719578401744
  C          -0.06029077641505      1.47523215957962      2.14749655873008
  C          -0.02043014351712     -0.21154253447328      1.23410329793100
  C          -0.04882294086502     -0.03993702837649     -0.18378253493866
  C          -1.22515947069064      0.03725519830970     -0.88778272700914
  N          -2.21893709385834      0.08920464259431     -1.48074174850350
  H           0.86777602090358      0.12687146163432     -0.73100521398402
  H           0.90453498714892     -0.61906730433641      1.62270240841881
  H          -0.90563227462150     -0.67574745283445      1.65183639394069
  H           0.83498881943432      1.97500892250761      1.80050578833312
  H          -0.96235214414749      1.94065754207304      1.77205948610129
  H          -0.09714786146722      2.13002134314983      4.16821436519174
  H          -0.95914205935863      0.61712695484692      3.89746216426916
  H           0.80985033452380      0.63869612186692      3.92421797750198
14
Coordinates from ORCA-job scan1 E -17.566162026140
  C          -0.07731568656291      1.19564304627066      3.62764153130826
  C          -0.06329614586435      1.50751858601614      2.16728404569889
  C          -0.01691331662436     -0.24107282546396      1.20892065319138
  C          -0.04707157542531     -0.06408040601620     -0.19519522242908
  C          -1.22715756426486      0.03178347542167     -0.89746378091445
  N          -2.22014676912023      0.09903269025720     -1.48805299096583
  H           0.86763752951763      0.09963955442982     -0.74700781869122
  H           0.91145875106859     -0.61875232370501      1.61503546404952
  H          -0.90451380417544     -0.67912497925970      1.64584544964873
  H           0.83344299992035      1.99493314818502      1.81063924581310
  H          -0.96962932570481      1.95402863377760      1.78301485794139
  H          -0.09854456979553      2.12865249678934      4.19508760176788
  H          -0.95806351396024      0.61924698383828      3.90111085503069
  H           0.81211099099149      0.64466591945914      3.92562210855072
14
Coordinates from ORCA-job scan1 E -17.558640040530
  C          -0.07706186989060      1.20258534212683      3.63865485248704
  C          -0.06502553615819      1.53971092996746      2.18799897375665
  C          -0.01455487583473     -0.26966817619153      1.18280697808720
  C          -0.04567988686320     -0.08650961274495     -0.20682201143599
  C          -1.22954917905376      0.02311379285016     -0.90843739739011
  N          -2.22130129519016      0.10148899894587     -1.49727519407361
  H           0.86685403007207      0.07645763135855     -0.76296233088707
  H           0.91622553388021     -0.61611604390435      1.60712980605064
  H          -0.90520253795970     -0.67758067315311      1.63898267625089
  H           0.83396198122657      2.01317612821700      1.82207861807101
  H          -0.97449531639584      1.96861794948280      1.79469092661730
  H          -0.09839100484336      2.12585011549910      4.22373726826592
  H          -0.95761903665729      0.62213408134435      3.90448168478037
  H           0.81383699366797      0.64885353620182      3.92741714941974
14
Coordinates from ORCA-job scan1 E -17.552067383110
  C          -0.07629966154162      1.20949354487349      3.65040225175032
  C          -0.06543616186705      1.57170472560698      2.20977656353521
  C          -0.01334357592058     -0.29757297016214      1.15618560612718
  C          -0.04484726916926     -0.10773310064149     -0.21883636382515
  C          -1.23252730390307      0.01257953442814     -0.92093664975226
  N          -2.22260960478207      0.09972413926456     -1.50864558032898
  H           0.86563456581776      0.05480681170190     -0.77900040151173
  H           0.91891964932367     -0.61201183056512      1.59875439091114
  H          -0.90730098382264     -0.67252994523015      1.63107821050476
  H           0.83638363919664      2.02936688087601      1.83426792565660
  H          -0.97720650248894      1.98384070085565      1.80711994203790
  H          -0.10003001403006      2.12225145505252      4.25366333826690
  H          -0.95599807663551      0.62368284317307      3.90785041274776
  H           0.81665929982272      0.65451121076657      3.93080235388032
14
Coordinates from ORCA-job scan1 E -17.546665409270
  C          -0.07525186309786      1.21707519244342      3.66414301788523
  C          -0.06534667263338      1.60326783512535      2.23318568669710
  C          -0.01271423089273     -0.32473402253233      1.12924283475420
  C          -0.04455081128516     -0.12734432023411     -0.23236232734584
  C          -1.23557551909517     -0.00000005048702     -0.93561723102244
  N          -2.22376615015262      0.09311675882260     -1.52306212151668
  H           0.86374272746608      0.03323449310948     -0.79705454812614
  H           0.92054564901991     -0.60638391527852      1.58884835863431
  H          -0.90983810164952     -0.66439781485471      1.62197620935574
  H           0.83940400960500      2.04451590157845      1.84817406635450
  H          -0.97899025835347      1.99884361896770      1.82106907628334
  H          -0.09973860054680      2.11854304243122      4.28578168093940
  H          -0.95492323784875      0.62703474240976      3.91266958969709
  H           0.81900105946448      0.65934253849872      3.93548770741018
14
Coordinates from ORCA-job scan1 E -17.542422633720
  C          -0.07406861192092      1.22552680042388      3.67957502169587
  C          -0.06482569353324      1.63458894511133      2.25805863140505
  C          -0.01251661226196     -0.35112725100189      1.10217831699364
  C          -0.04456064614527     -0.14560581160411     -0.24743333079278
  C          -1.23883103962739     -0.01376233082512     -0.95201182069454
  N          -2.22534761946874      0.08347491900031     -1.53923742936715
  H           0.86195743500666      0.01197611733819     -0.81615743616261
  H           0.92121629066198     -0.60097605315505      1.57699724813369
  H          -0.91227460191569     -0.65577885396186      1.61093665176888
  H           0.84279766757104      2.05852154509698      1.86318480248828
  H          -0.97992760678479      2.01334010299198      1.83602678402756
  H          -0.09842781255526      2.11542668434231      4.31917357729875
  H          -0.95416215650720      0.63213252361997      3.91930717193039
  H           0.82096900748077      0.66437666262306      3.94188381127496
14
Coordinates from ORCA-job scan1 E -17.539197547340
  C          -0.07274736771894      1.23476900316664      3.69633071671400
  C          -0.06398001325341      1.66645297551091      2.28399889119770
  C          -0.01272090099615     -0.37660381833009      1.07573665167180
  C          -0.04491980333193     -0.16308001677114     -0.26379784964176
  C          -1.24204385590585     -0.02874638195156     -0.96977152901360
  N          -2.22708356915231      0.07128682260273     -1.55696269670928
  H           0.86003256898165     -0.00971475466124     -0.83642537056426
  H           0.92112496146606     -0.59674748882849      1.56343566622298
  H          -0.91460278632611     -0.64764851926912      1.59824991553852
  H           0.84640103973879      2.07317485518833      1.87986179134628
  H          -0.98026423915899      2.02887751473177      1.85254367826305
  H          -0.09625659388949      2.11228105823497      4.35400723386186
  H          -0.95363037827364      0.63844417320183      3.92654882382887
  H           0.82268893782034      0.66936857717447      3.94872607728384
14
Coordinates from ORCA-job scan1 E -17.536792437350
  C          -0.07131389795665      1.24499405958786      3.71413220522285
  C          -0.06285951015171      1.69892071795051      2.31090147913650
  C          -0.01335467103734     -0.40115371096579      1.04990452326840
  C          -0.04568202804264     -0.17975067120184     -0.28143225481594
  C          -1.24516696013827     -0.04449546099966     -0.98868154369212
  N          -2.22901326002457      0.05727083470959     -1.57590342094227
  H           0.85810800289285     -0.03102242767565     -0.85730779368559
  H           0.92011627169120     -0.59500473531083      1.54843268857421
  H          -0.91647198186501     -0.64188777369172      1.58414892243962
  H           0.85006259400976      2.08845179039010      1.89777037215198
  H          -0.97997175758904      2.04555884380680      1.87031759249906
  H          -0.09348980989284      2.10931824147645      4.39000027973196
  H          -0.95324230608607      0.64606679812711      3.93427428867426
  H           0.82427731419033      0.67484749379705      3.95592466143706
14
Coordinates from ORCA-job scan1 E -17.535008757460
  C          -0.06986125866996      1.25722757559003      3.73381295085025
  C          -0.06205077232624      1.72982681083240      2.33864481599908
  C          -0.01376543375088     -0.42648103655454      1.02385175903715
  C          -0.04658274760274     -0.19685980511813     -0.30098344580619
  C          -1.24801039984869     -0.05949152622847     -1.00867046227012
  N          -2.23097488773528      0.04560327011061     -1.59548928608337
  H           0.85602550445199     -0.05178048058424     -0.87979725808984
  H           0.91959186140065     -0.59942688625066      1.52967558143474
  H          -0.91766875301672     -0.64206099868496      1.56692188282507
  H           0.85265597122304      2.10453197265645      1.91738335885635
  H          -0.97998656478555      2.06159531505092      1.88987829529331
  H          -0.09104956672890      2.11057745715963      4.42433089460418
  H          -0.95218282624469      0.65563145417073      3.94604093365760
  H           0.82585787363397      0.68322087785020      3.96688197969176
14
Coordinates from ORCA-job scan1 E -17.533674673510
  C          -0.06856111597141      1.27067758600031      3.75501634412787
  C          -0.06182644842728      1.75922898550321      2.36616274080898
  C          -0.01362030315551     -0.45277124296873      0.99695309611115
  C          -0.04728205403809     -0.21497129730988     -0.32236847311544
  C          -1.25064439472936     -0.07469167499817     -1.02980911074347
  N          -2.23344475868940      0.03917837751739     -1.61415127486612
  H           0.85439782946887     -0.07286066404778     -0.90350076471169
  H           0.91929157011578     -0.60942923148612      1.50887727480251
  H          -0.91717141073490     -0.64850283928517      1.54808981756527
  H           0.85338373062209      2.12334031300186      1.93774442604435
  H          -0.98039764700007      2.07665070248855      1.90937996771392
  H          -0.08875017662866      2.11500780508351      4.45708837499949
  H          -0.95084114997888      0.66699191523412      3.96165083676160
  H           0.82746432914682      0.69426526526691      3.98134874450154
14
Coordinates from ORCA-job scan1 E -17.532653459960
  C          -0.06700732431471      1.28402799650811      3.77548078612746
  C          -0.06090010984320      1.79143332330490      2.39443377450851
  C          -0.01430995486629     -0.47679420689962      0.97181893914058
  C          -0.04850911564653     -0.23173865436865     -0.34302680747789
  C          -1.25347759818420     -0.08986872830266     -1.05059861935874
  N          -2.23556078842539      0.02646422307862     -1.63472860375946
  H           0.85241984341964     -0.09370915516865     -0.92643796179068
  H           0.91850394791958     -0.62054364803217      1.48774048087585
  H          -0.91797576570901     -0.65489534450917      1.52878985359700
  H           0.85569829739525      2.14274175615180      1.95937730192969
  H          -0.97998059263798      2.09658680947290      1.93131418287691
  H          -0.08645911912808      2.11689238530110      4.49161859481621
  H          -0.94950181701403      0.67761334839954      3.97391654708868
  H           0.82905809703495      0.70390389506392      3.99278353142585
14
Coordinates from ORCA-job scan1 E -17.531850921620
  C          -0.06544753266581      1.29828791365564      3.79683533229819
  C          -0.06021292477617      1.82251737359463      2.42258870500927
  C          -0.01487221535543     -0.50170476068128      0.94638396991814
  C          -0.04984608932227     -0.24956282854201     -0.36495796843466
  C          -1.25593744285824     -0.10418106469008     -1.07183386351216
  N          -2.23760650594241      0.01577450731548     -1.65526518347943
  H           0.85025878242756     -0.11376991341232     -0.95025005703172
  H           0.91768272184871     -0.63635998733200      1.46529131553835
  H          -0.91804976358371     -0.66577436333320      1.50850866792438
  H           0.85705921598920      2.16426395862791      1.98223218186434
  H          -0.97969827106317      2.11697768805934      1.95419254248895
  H          -0.08434384042523      2.12066331830469      4.52526270225961
  H          -0.94803905400071      0.68943184477483      3.98773601748204
  H           0.83105091972767      0.71555031365836      4.00575763767467
14
Coordinates from ORCA-job scan1 E -17.531201519950
  C          -0.06388539038754      1.31269701197421      3.81796925918454
  C          -0.05945789900922      1.85410657525256      2.45078919667036
  C          -0.01550295182112     -0.52620966358993      0.92130533212604
  C          -0.05120356581215     -0.26748165287731     -0.38697789995487
  C          -1.25839960776033     -0.11851890774702     -1.09308935992256
  N          -2.23977424937080      0.00485067299439     -1.67570530544381
  H           0.84822112216516     -0.13404229549403     -0.97394475730148
  H           0.91699278679419     -0.65495887722288      1.44198980102593
  H          -0.91826790606462     -0.67914434327061      1.48740980602085
  H           0.85834771788666      2.18842300737409      2.00648711176177
  H          -0.97930086690500      2.13952007070923      1.97811484908498
  H          -0.08222200532358      2.12444679779528      4.55844555214291
  H          -0.94642496919645      0.70124497626684      4.00122283598140
  H           0.83287578480480      0.72718062783517      4.01846557862387
14
Coordinates from ORCA-job scan1 E -17.530663163520
  C          -0.06232264498052      1.32711745168336      3.83883682837366
  C          -0.05871100063973      1.88589167314419      2.47888993048204
  C          -0.01615713916944     -0.55067275208978      0.89650452488626
  C          -0.05259524736731     -0.28584976614393     -0.40916620569758
  C          -1.26076740237704     -0.13281335932714     -1.11428430426464
  N          -2.24193178229788     -0.00584209963403     -1.69597385363776
  H           0.84620052892837     -0.15447301242865     -0.99763914424057
  H           0.91637528038469     -0.67605152256677      1.41814173037547
  H          -0.91846146060794     -0.69476598588358      1.46586654606210
  H           0.85940676476164      2.21529095202495      2.03204551411683
  H          -0.97887020212340      2.16415188740187      2.00303711066007
  H          -0.08012073997774      2.12814075714718      4.59106758545564
  H          -0.94473490705907      0.71306542985984      4.01433648286579
  H           0.83468795252539      0.73892434681249      4.03081925456262
14
Coordinates from ORCA-job scan1 E -17.530209473750
  C          -0.06076153153239      1.34140952585744      3.85930818835147
  C          -0.05796486264542      1.91788429708131      2.50688103742658
  C          -0.01683444506935     -0.57510909532627      0.87199153711438
  C          -0.05401044165252     -0.30466526234085     -0.43141863122565
  C          -1.26305069787570     -0.14712220701995     -1.13535373191319
  N          -2.24406602198319     -0.01636074030972     -1.71602084127510
  H           0.84419652016994     -0.17518350491121     -1.02127835582202
  H           0.91581136171298     -0.69917241823020      1.39393768551069
  H          -0.91866129029231     -0.71215776956152      1.44405608360607
  H           0.86028242027545      2.24485911964078      2.05888497939638
  H          -0.97841144960187      2.19083260038032      2.02886537410064
  H          -0.07802902739451      2.13150098982469      4.62313361069994
  H          -0.94299294934422      0.72476847325321      4.02687217514563
  H           0.83649041523312      0.75062999166196      4.04262288888412
14
Coordinates from ORCA-job scan1 E -17.529823844980
  C          -0.05920383263552      1.35544575498841      3.87924678706732
  C          -0.05720550416770      1.95013273469034      2.53475884449768
  C          -0.01754332738380     -0.59951211690272      0.84780628575583
  C          -0.05544399031108     -0.32391561965646     -0.45363256172077
  C          -1.26525541283970     -0.16150943883294     -1.15623320348392
  N          -2.24616596844431     -0.02678702324205     -1.73579724275457
  H           0.84221056632704     -0.19625866406023     -1.04478983448693
  H           0.91527070780518     -0.72387372392001      1.36956626712407
  H          -0.91889723111074     -0.73087342642783      1.42214669200244
  H           0.86102563208459      2.27709682827227      2.08699468354663
  H          -0.97791872019109      2.21951482677989      2.05550758105635
  H          -0.07592718357593      2.13427085778111      4.65464802853117
  H          -0.94122391484132      0.73624219857753      4.03860256820282
  H           0.83827617928438      0.76214081195268      4.05365710466180
14
Coordinates from ORCA-job scan1 E -17.529494913760
  C          -0.05765038361682      1.36912031523261      3.89852594512118
  C          -0.05641540347946      1.98270298801581      2.56253260575114
  C          -0.01829713751984     -0.62385721373011      0.82400163393397
  C          -0.05689539626289     -0.34356881442148     -0.47571268458917
  C          -1.26738503439951     -0.17603261046279     -1.17686770697123
  N          -2.24822224585752     -0.03722224237192     -1.75526759886750
  H           0.84024250349038     -0.21774160236070     -1.06809725641422
  H           0.91471706264030     -0.74974940090992      1.34520427573394
  H          -0.91919562860683     -0.75052913028195      1.40028873330128
  H           0.86168536135755      2.31192920256007      2.11636763654664
  H          -0.97737654076201      2.25013283873924      2.08287744072613
  H          -0.07378794084782      2.13620744695060      4.68561322795660
  H          -0.93945459174565      0.74740504787975      4.04930911986000
  H           0.84003337561013      0.77331717516078      4.06370662791115
14
Coordinates from ORCA-job scan1 E -17.529213765370
  C          -0.05610172991587      1.38235295448276      3.91703263260739
  C          -0.05557791325710      2.01566564926861      2.59022271098213
  C          -0.01910967722867     -0.64811022268609      0.80063507480724
  C          -0.05836696766461     -0.36357946024357     -0.49757138992306
  C          -1.26944268608551     -0.19074068827901     -1.19720947238721
  N          -2.25022512468902     -0.04776332582675     -1.77440876188818
  H           0.83829033892606     -0.23963487713340     -1.09112375907503
  H           0.91411658569371     -0.77644015237671      1.32101146498048
  H          -0.91957761306261     -0.77081254369118      1.37861263670708
  H           0.86230383264803      2.34922834885716      2.14699390790790
  H          -0.97676627224226      2.28259630624778      2.11089577825112
  H          -0.07158002551177      2.13709651120374      4.71602321131314
  H          -0.93771175486522      0.75820853180690      4.05879638464328
  H           0.84174700725484      0.78404696836975      4.07257158107361
14
Coordinates from ORCA-job scan1 E -17.528972728930
  C          -0.05455916756596      1.39509090712426      3.93467282387665
  C          -0.05467911262470      2.04908208700427      2.61785970609169
  C          -0.01999206371407     -0.67223471634990      0.77775842134716
  C          -0.05986094604641     -0.38389259224320     -0.51913392907627
  C          -1.27143079628031     -0.20566898117343     -1.21722030627884
  N          -2.25216818885668     -0.05849731687112     -1.79320465124485
  H           0.83635261610033     -0.26190624044109     -1.11379867993863
  H           0.91344163901508     -0.80363945063507      1.29712413743306
  H          -0.92005810125632     -0.79148086874948      1.35722385212386
  H           0.86291553036935      2.38881328427240      2.17886027410707
  H          -0.97606913064981      2.31679136874624      2.13949444550543
  H          -0.06927111524556      2.13676490462539      4.74586047968400
  H          -0.93602259906155      0.76863962787387      4.06690528502880
  H           0.84339943581660      0.79425198681686      4.08008014134077
14
Coordinates from ORCA-job scan1 E -17.528765066320
  C          -0.05302429656891      1.40730824820795      3.95137537366844
  C          -0.05370769469876      2.08299578488075      2.64548306441452
  C          -0.02095281988502     -0.69619692385285      0.75541162505391
  C          -0.06137976750144     -0.40444749433541     -0.54034021913625
  C          -1.27335303114114     -0.22084312166487     -1.23687366543889
  N          -2.25404680893847     -0.06950229330514     -1.81165239798849
  H           0.83442722167937     -0.28449392513198     -1.13606157107225
  H           0.91267166598712     -0.83109183452069      1.27365089644941
  H          -0.92064721113354     -0.81235562873598      1.33620088404637
  H           0.86354848615508      2.43045916864669      2.21195189557956
  H          -0.97526698854884      2.35258879017649      2.16862095349013
  H          -0.06682814036202      2.13508562726421      4.77509773521273
  H          -0.93441368546205      0.77871935336714      4.07352134234845
  H           0.84497107041861      0.80388824900370      4.08609608337224
14
Coordinates from ORCA-job scan1 E -17.528584920020
  C          -0.05149957632091      1.41900419184916      3.96709326940482
  C          -0.05265574223385      2.11742670842910      2.67313887046763
  C          -0.02199649308919     -0.71996985621611      0.73361872358596
  C          -0.06292440946934     -0.42518214270270     -0.56114705484499
  C          -1.27521362580971     -0.23627829470534     -1.25615516119222
  N          -2.25586017334049     -0.08084341167968     -1.82975700639262
  H           0.83251315266899     -0.30731626497614     -1.15786570181908
  H           0.91179415701819     -0.85859157350435      1.25067107049512
  H          -0.92134986720234     -0.83331614247661      1.31559438162378
  H           0.86422492900746      2.47390413670854      2.24624981572596
  H          -0.97434438649307      2.38985104826634      2.19824107151055
  H          -0.06422124848074      2.13198046954858      4.80369852669271
  H          -0.93291023661175      0.78849820383698      4.07857775219418
  H           0.84644152035674      0.81294692762222      4.09052344254806
14
Coordinates from ORCA-job scan1 E -17.528427273220
  C          -0.04998837852892      1.43021171787043      3.98180865999971
  C          -0.05151716224907      2.15236541807827      2.70087303516559
  C          -0.02312516691671     -0.74354130232899      0.71238440306011
  C          -0.06449456327320     -0.44604387216583     -0.58153003950969
  C          -1.27701682433351     -0.25198343498791     -1.27506475415214
  N          -2.25760825048490     -0.09257338033846     -1.84753613182829
  H           0.83061045529852     -0.33028814513230     -1.17918140240680
  H           0.91080073560474     -0.88598566462576      1.22823649476622
  H          -0.92216677993827     -0.85429090275074      1.29542968492307
  H           0.86496320195904      2.51886515646423      2.28173189566380
  H          -0.97328835599120      2.42841874347654      2.22832764790370
  H          -0.06143255893351      2.12743511045218      4.83162017723212
  H          -0.93153140534070      0.79805640861083      4.08206118012378
  H           0.84779305312767      0.82146814737751      4.09332114905868
14
Coordinates from ORCA-job scan1 E -17.528288647720
  C          -0.04840254430911      1.44030320387296      3.99450252705164
  C          -0.04986604876889      2.18841962384254      2.72843114311432
  C          -0.02478055404744     -0.76693637923700      0.69235393915193
  C          -0.06633787452563     -0.46741486885297     -0.60093583339965
  C          -1.27889340073875     -0.26789235987659     -1.29310668438457
  N          -2.25933156766739     -0.10426044538681     -1.86454617081516
  H           0.82861108860869     -0.35395370444021     -1.19927131356213
  H           0.90916667547354     -0.91295719738898      1.20722462452939
  H          -0.92364314779541     -0.87444410624813      1.27635711190223
  H           0.86592118975647      2.57029687179676      2.32167199782180
  H          -0.97139505982015      2.46548767467721      2.25614280656055
  H          -0.05822680005726      2.11995114036427      4.85845046745843
  H          -0.93006928022959      0.80661324551087      4.08214376674299
  H           0.84924532412091      0.82890130136605      4.09306361782810
14
Coordinates from ORCA-job scan1 E -17.528165773790
  C          -0.04638588696252      1.44892509141463      4.00397750259534
  C          -0.04709175863685      2.22608193759316      2.75551535336328
  C          -0.02707444542824     -0.79027898710194      0.67410638225834
  C          -0.06844977630622     -0.48975660138103     -0.61879993226909
  C          -1.28101093566114     -0.28377419402012     -1.30948656549235
  N          -2.26151959834407     -0.11476675852281     -1.87912470838333
  H           0.82656430293765     -0.37973999996521     -1.21769032383301
  H           0.90702689464232     -0.93993993727925      1.18771025579593
  H          -0.92619276999332     -0.89275713822410      1.25868640026185
  H           0.86759038770311      2.62738679595658      2.36510781688347
  H          -0.96815195511149      2.50466156138497      2.28321154258478
  H          -0.06030794345062      2.10770090365205      4.88391915595188
  H          -0.92600468851983      0.81032471717746      4.07477311201994
  H           0.85300617313122      0.83804660931559      4.09057600826282
14
Coordinates from ORCA-job scan1 E -17.528055362270
  C          -0.04418766936557      1.45687368100870      4.01297625597512
  C          -0.04392135381227      2.26406687233215      2.78335012605536
  C          -0.02981499159979     -0.81296491026849      0.65613813920422
  C          -0.07098891707258     -0.51124640790286     -0.63646991660011
  C          -1.28326384733230     -0.30021113317359     -1.32611825682175
  N          -2.26340167008884     -0.12701366893656     -1.89509590298568
  H           0.82395662877340     -0.40590792854832     -1.23628586025930
  H           0.90396468717461     -0.96660728845269      1.16920167468059
  H          -0.92871388688978     -0.91065611629729      1.24192755770070
  H           0.86933283984451      2.68551145747186      2.41120053608847
  H          -0.96435431156770      2.54439405677975      2.31095021555062
  H          -0.06240927691491      2.09446335788862      4.90822928044504
  H          -0.92165669273186      0.81380051746078      4.06524318173272
  H           0.85745646158309      0.84761151063793      4.08723496923382
14
Coordinates from ORCA-job scan1 E -17.527953385340
  C          -0.04242356321347      1.46435458410690      4.01921317840120
  C          -0.04157343810819      2.30370788720717      2.81137655829956
  C          -0.03183654800016     -0.83498187948891      0.63981672338023
  C          -0.07298876740954     -0.53278255793698     -0.65243688684465
  C          -1.28517608373696     -0.31663731330243     -1.34101781032111
  N          -2.26502355815341     -0.13931892928152     -1.90914267822822
  H           0.82199039852685     -0.43018868525094     -1.25274473364831
  H           0.90203439697584     -0.99230821817731      1.15177479620817
  H          -0.93075608915432     -0.92946866798339      1.22620158700208
  H           0.87105800721178      2.73870424056885      2.45347442853171
  H          -0.96176183314471      2.59043851139306      2.34225334589864
  H          -0.06382654929982      2.07764979153399      4.93126102628287
  H          -0.91819258020038      0.81771151070336      4.05292391906074
  H           0.86047420770647      0.85523372590814      4.07952854597696
14
Coordinates from ORCA-job scan1 E -17.527859865310
  C          -0.04060539354236      1.47155313705076      4.02480694868376
  C          -0.03897321621574      2.34326221319975      2.84005035273954
  C          -0.03403908545828     -0.85679846670563      0.62373761564601
  C          -0.07511975276400     -0.55392267118325     -0.66832708902327
  C          -1.28708607602748     -0.33365198223242     -1.35606830246876
  N          -2.26669297386358     -0.15306596113365     -1.92354381977124
  H           0.81976877143791     -0.45425329189442     -1.26926663913628
  H           0.89970960742898     -1.01759394065311      1.13489003580492
  H          -0.93287065326691     -0.94845160579270      1.21074556549391
  H           0.87303735916667      2.79224266010061      2.49814594281408
  H          -0.95866165766664      2.63757832841535      2.37469337087820
  H          -0.06516829723973      2.05991847669580      4.95305120401041
  H          -0.91490488637462      0.82225880237440      4.03896093528195
  H           0.86360425438577      0.86303830175850      4.07060587904664
14
Coordinates from ORCA-job scan1 E -17.527773825650
  C          -0.03833272585385      1.47813645767073      4.02899160275141
  C          -0.03427264555542      2.38357225574859      2.86975340220652
  C          -0.03790704562836     -0.87766938245611      0.60842907878693
  C          -0.07811567537237     -0.57398324506354     -0.68344854705587
  C          -1.28959918279676     -0.35303266902989     -1.37189159677422
  N          -2.26876501131651     -0.17197903678336     -1.93995188708933
  H           0.81716251043365     -0.47475912342422     -1.28388300635767
  H           0.89549740953746     -1.03942462013954      1.11994582839055
  H          -0.93711599143720     -0.96909528390599      1.19491755974012
  H           0.87701813175363      2.84908037227082      2.54864382208495
  H          -0.95254524813560      2.68433292642300      2.40577808667087
  H          -0.06705184229002      2.03958151076883      4.97362923234996
  H          -0.91114233784602      0.82685108928546      4.02111922323208
  H           0.86716765450737      0.87050274863522      4.06044920106356
14
Coordinates from ORCA-job scan1 E -17.527693705380
  C          -0.03603812850696      1.48472397604840      4.03211101926354
  C          -0.02933036226138      2.42394655472335      2.90005338251405
  C          -0.04190556904889     -0.89835909544724      0.59358493605814
  C          -0.08120887031669     -0.59383683721194     -0.69810926549917
  C          -1.29220952942218     -0.37266506960113     -1.38738359835465
  N          -2.27095283300692     -0.19152660307779     -1.95612365401505
  H           0.81450748798097     -0.49433733349786     -1.29784558003131
  H           0.89116234266864     -1.06058111514767      1.10560189833871
  H          -0.94155581548807     -0.99023866124353      1.17936266777622
  H           0.88121088286801      2.90517945555942      2.60064781412875
  H          -0.94596376504628      2.73130786839629      2.43721655215254
  H          -0.06926675672505      2.01806517119244      4.99273775001681
  H          -0.90724213478252      0.83207482043737      4.00142634656723
  H           0.87079105108733      0.87836086886988      4.04920173108403
14
Coordinates from ORCA-job scan1 E -17.527620106950
  C          -0.03324188931824      1.49082348007975      4.03338306468453
  C          -0.02327233318636      2.46466695593454      2.93084225051517
  C          -0.04669293871391     -0.91895472794503      0.57964558922997
  C          -0.08496474528606     -0.61376424710283     -0.71191931699820
  C          -1.29541432489544     -0.39185462881114     -1.40196725478543
  N          -2.27369559288474     -0.21023427101801     -1.97133177044578
  H           0.81118141929050     -0.51502483291403     -1.31113609305088
  H           0.88584509399774     -1.08214112500610      1.09228145762880
  H          -0.94692306261066     -1.01055241745046      1.16464854902714
  H           0.88502795454867      2.96617664717140      2.65979601596981
  H          -0.93721504345720      2.77454471951415      2.46438076154529
  H          -0.07540610072128      1.99445546571005      5.00954463924006
  H          -0.90029878904612      0.83468751400774      3.97585121481728
  H           0.87706835228311      0.88928546782994      4.03846289262206
14
Coordinates from ORCA-job scan1 E -17.527550912460
  C          -0.03040641480745      1.49716121043456      4.03360843552282
  C          -0.01715086700403      2.50526773573519      2.96230324665849
  C          -0.05143013587579     -0.93943400965597      0.56608674449342
  C          -0.08876416482639     -0.63349365551229     -0.72532611448893
  C          -1.29871454466637     -0.41136755062590     -1.41621357204552
  N          -2.27658978282657     -0.22966781548649     -1.98623645803882
  H           0.80783650520745     -0.53447701361761     -1.32381529972778
  H           0.88075476805156     -1.10310007710013      1.07923917594263
  H          -0.95213319347166     -1.03155610720399      1.15031466315488
  H           0.88880022862579      3.02560489858400      2.72032601483632
  H          -0.92806760595254      2.81835505308891      2.49212875654964
  H          -0.08137866294503      1.96972369605742      5.02473841377324
  H          -0.89365839275393      0.83909794512322      3.94897123256802
  H           0.88290026324496      0.89999969017905      4.02635676080142
14
Coordinates from ORCA-job scan1 E -17.527485603470
  C          -0.02805127839014      1.50369739912190      4.03166631428421
  C          -0.01332658409432      2.54618968323557      2.99456864566917
  C          -0.05477427009820     -0.96030623710518      0.55433835902317
  C          -0.09222212033827     -0.65403314997034     -0.73710642356950
  C          -1.30196585485282     -0.42648614581096     -1.42656780968168
  N          -2.27966582547102     -0.24043094207414     -1.99548433172067
  H           0.80406483226820     -0.55967588673283     -1.33679360208585
  H           0.87743115680641     -1.12864944346747      1.06567597051113
  H          -0.95540345477571     -1.04853466943391      1.13910720007901
  H           0.88799178941475      3.08856576107615      2.78595787299255
  H          -0.91828994185699      2.85305749140658      2.51003554664225
  H          -0.08809569378536      1.94270946666791      5.03756185645820
  H          -0.88558676367833      0.84267882328762      3.91855464060806
  H           0.88989200885181      0.91333184979908      4.01096776078977
14
Coordinates from ORCA-job scan1 E -17.527424135180
  C          -0.02580021821388      1.50974003936061      4.02745242171530
  C          -0.01057534804473      2.58662514406394      3.02600001888915
  C          -0.05670162649782     -0.98215898842311      0.54243523905027
  C          -0.09473893464506     -0.67586506527002     -0.74897365994931
  C          -1.30442967848370     -0.44175850074009     -1.43636239775769
  N          -2.28209506145272     -0.25045644222177     -2.00358306651237
  H           0.80102667879319     -0.58646551880538     -1.35019727017431
  H           0.87541756626002     -1.15560653988242      1.05222268048991
  H          -0.95676575003686     -1.06530454188169      1.12888491145835
  H           0.88690573451466      3.14585997062252      2.84766694531057
  H          -0.91312748937014      2.89947282257747      2.54048581317638
  H          -0.09352959988902      1.91449292372471      5.04708233690676
  H          -0.87901339750782      0.84851364136852      3.88695868504273
  H           0.89542512457389      0.92502505550671      3.99240934235410
14
Coordinates from ORCA-job scan1 E -17.527365858230
  C          -0.02369566325886      1.51619953181222      4.02241292022474
  C          -0.00811310471396      2.62672522385221      3.05832912789908
  C          -0.05847893795309     -1.00393724138809      0.53083829594078
  C          -0.09719236362091     -0.69741332830642     -0.76049761753934
  C          -1.30686388153199     -0.45703897724538     -1.44577906813996
  N          -2.28453287592114     -0.26072880042412     -2.01126911440864
  H           0.79797696808588     -0.61266929807205     -1.36328092733938
  H           0.87363129658078     -1.18240793846559      1.03893640082999
  H          -0.95797589328607     -1.08254144773641      1.11882536649088
  H           0.88551758900201      3.20078840933539      2.91032700052268
  H          -0.90773967033584      2.94605810922522      2.57166975862960
  H          -0.09854101804497      1.88568403521903      5.05481702489191
  H          -0.87267210637974      0.85603602042430      3.85450133906035
  H           0.90067766137791      0.93735970176970      3.97265149293716
14
Coordinates from ORCA-job scan1 E -17.527310406760
  C          -0.02203558086762      1.52246116311382      4.01409804840325
  C          -0.01015257748410      2.66636814704934      3.08952066549171
  C          -0.05671580941591     -1.02768072928590      0.52011708061212
  C          -0.09819192317759     -0.72175460165801     -0.77119105764193
  C          -1.30830368917742     -0.46551320935598     -1.45000952639636
  N          -2.28634119960210     -0.25651045069897     -2.01027131812512
  H           0.79455855062277     -0.65218137677469     -1.37946737107484
  H           0.87532752181566     -1.21913890032034      1.02400652544344
  H          -0.95352595963395     -1.09196919318557      1.11386462880476
  H           0.87793191814230      3.25629202104947      2.97323346200261
  H          -0.90785735106700      2.99172579367633      2.60354205408718
  H          -0.10467230756305      1.85449307037247      5.05845184463040
  H          -0.86514738265554      0.86283851211382      3.81777278051265
  H           0.90712379006354      0.95268375390421      3.94881418324994
